K2 La4 Nb2 O12
1.0
   2.9144470000000000    6.4206440000000002    0.0000000000000000
  -2.9144470000000000    6.4206440000000002    0.0000000000000000
   0.0000000000000000    2.4664530000000000    8.6256959999999996
K La Nb O
2 4 2 12
direct
   0.8845769999999999    0.8845769999999999    0.4808600000000000 K
   0.1154230000000000    0.1154230000000000    0.5191400000000000 K
   0.8702640000000000    0.8702640000000000    0.9282840000000000 La
   0.1297360000000000    0.1297360000000000    0.0717160000000000 La
   0.4115890000000000    0.4115890000000000    0.2049290000000000 La
   0.5884110000000000    0.5884110000000000    0.7950710000000000 La
   0.6592840000000000    0.6592840000000000    0.2969420000000000 Nb
   0.3407160000000000    0.3407160000000000    0.7030580000000000 Nb
   0.6828350000000000    0.2203380000000000    0.7075050000000001 O
   0.7796620000000000    0.3171650000000000    0.2924950000000000 O
   0.7477140000000000    0.2522860000000000    0.0000000000000000 O
   0.5314060000000000    0.9958210000000000    0.1678140000000000 O
   0.3171650000000000    0.7796620000000000    0.2924950000000000 O
   0.4685940000000000    0.0041790000000000    0.8321860000000000 O
   0.0041790000000000    0.4685940000000000    0.8321860000000000 O
   0.3229440000000000    0.3229440000000000    0.5039020000000000 O
   0.6770560000000000    0.6770560000000000    0.4960980000000000 O
   0.2522860000000000    0.7477140000000000    0.0000000000000000 O
   0.9958210000000000    0.5314060000000000    0.1678140000000000 O
   0.2203380000000000    0.6828350000000000    0.7075050000000001 O
