Tl4 Pd2 Se4
1.0
   3.7467910000000000    0.0000000000000000    0.0000000000000000
   0.0000000000000000    6.2110640000000004    0.0000000000000000
   0.0000000000000000    0.0000000000000000   11.5935059999999996
Tl Pd Se
4 2 4
direct
   0.0000000000000000    0.6105240000000000    0.1532080000000000 Tl
   0.0000000000000000    0.3894760000000000    0.8467920000000000 Tl
   0.0000000000000000    0.1105240000000000    0.3467920000000000 Tl
   0.0000000000000000    0.8894760000000000    0.6532080000000000 Tl
   0.0000000000000000    0.0000000000000000    0.0000000000000000 Pd
   0.0000000000000000    0.5000000000000000    0.5000000000000000 Pd
   0.5000000000000000    0.6757730000000000    0.3895160000000000 Se
   0.5000000000000000    0.3242270000000000    0.6104840000000000 Se
   0.5000000000000000    0.1757730000000000    0.1104840000000000 Se
   0.5000000000000000    0.8242270000000000    0.8895160000000000 Se
