Bi4 B4 Pb4 O16
1.0
   7.5862720000000001    0.0000000000000000    0.0000000000000000
   0.0000000000000000    7.6415910000000000    0.0000000000000000
   0.0000000000000000    7.2277760000000004    7.7527470000000003
Bi B Pb O
4 4 4 16
direct
   0.9991430000000000    0.8167170000000000    0.3432030000000000 Bi
   0.5008570000000000    0.8167170000000000    0.8432030000000000 Bi
   0.0008570000000000    0.1832830000000000    0.6567970000000000 Bi
   0.4991430000000000    0.1832830000000000    0.1567970000000000 Bi
   0.2429230000000000    0.0005120000000000    0.0115290000000000 B
   0.7570770000000000    0.9994880000000000    0.9884710000000000 B
   0.2570770000000000    0.0005120000000000    0.5115290000000000 B
   0.7429230000000000    0.9994880000000000    0.4884710000000000 B
   0.8902130000000000    0.4996590000000000    0.8164270000000000 Pb
   0.6097870000000000    0.4996590000000000    0.3164270000000000 Pb
   0.3902130000000000    0.5003410000000000    0.6835730000000000 Pb
   0.1097870000000000    0.5003410000000000    0.1835730000000000 Pb
   0.8973240000000000    0.5010019999999999    0.3963120000000000 O
   0.7895840000000000    0.7903460000000000    0.5278030000000000 O
   0.3973240000000000    0.4989980000000000    0.1036880000000000 O
   0.7104160000000000    0.7903460000000000    0.0278030000000000 O
   0.7033860000000000    0.2053800000000000    0.3176100000000000 O
   0.2629670000000000    0.9921700000000000    0.3856840000000000 O
   0.7629670000000000    0.0078300000000000    0.1143160000000000 O
   0.1026760000000000    0.4989980000000000    0.6036880000000000 O
   0.2895840000000000    0.2096540000000000    0.9721970000000000 O
   0.2104160000000000    0.2096540000000000    0.4721970000000000 O
   0.2370330000000000    0.9921700000000000    0.8856840000000000 O
   0.2033860000000000    0.7946200000000000    0.1823900000000000 O
   0.2966140000000000    0.7946200000000000    0.6823900000000001 O
   0.7370330000000000    0.0078300000000000    0.6143160000000000 O
   0.7966140000000000    0.2053800000000000    0.8176099999999999 O
   0.6026760000000000    0.5010019999999999    0.8963120000000000 O
