Sr2 Mg1 W1 O6
1.0
   0.0000000000000000    4.0146360000000003    4.0146360000000003
   4.0146360000000003    0.0000000000000000    4.0146360000000003
   4.0146360000000003    4.0146360000000003    0.0000000000000000
Sr Mg W O
2 1 1 6
direct
   0.2500000000000000    0.2500000000000000    0.2500000000000000 Sr
   0.7500000000000000    0.7500000000000000    0.7500000000000000 Sr
   0.5000000000000000    0.5000000000000000    0.5000000000000000 Mg
   0.0000000000000000    0.0000000000000000    0.0000000000000000 W
   0.7573210000000000    0.2426790000000000    0.7573210000000000 O
   0.2426790000000000    0.2426790000000000    0.7573210000000000 O
   0.7573210000000000    0.7573210000000000    0.2426790000000000 O
   0.7573210000000000    0.2426790000000000    0.2426790000000000 O
   0.2426790000000000    0.7573210000000000    0.2426790000000000 O
   0.2426790000000000    0.7573210000000000    0.7573210000000000 O
