Ag12 Sb4 S12
1.0
  16.0135940000000012    0.0000000000000000    0.0000000000000000
   0.0000000000000000    6.4006379999999998    0.0000000000000000
   0.0000000000000000    3.1266430000000001    6.2727320000000004
Ag Sb S
12 4 12
direct
   0.8110740000000000    0.7105890000000000    0.0569840000000000 Ag
   0.7429920000000000    0.3109650000000000    0.4729460000000000 Ag
   0.3110740000000000    0.7894110000000000    0.9430160000000000 Ag
   0.9020570000000000    0.4678660000000000    0.5896850000000000 Ag
   0.2429920000000000    0.1890350000000000    0.5270540000000000 Ag
   0.5979430000000000    0.9678660000000000    0.5896850000000000 Ag
   0.1889260000000000    0.2894110000000000    0.9430160000000000 Ag
   0.2570080000000000    0.6890350000000000    0.5270540000000000 Ag
   0.0979430000000000    0.5321340000000000    0.4103150000000000 Ag
   0.4020570000000000    0.0321340000000000    0.4103150000000000 Ag
   0.6889260000000000    0.2105890000000000    0.0569840000000000 Ag
   0.7570080000000000    0.8109650000000000    0.4729460000000000 Ag
   0.5518830000000000    0.6727150000000000    0.1931610000000000 Sb
   0.0518830000000000    0.8272850000000000    0.8068390000000000 Sb
   0.4481170000000000    0.3272850000000000    0.8068390000000000 Sb
   0.9481170000000000    0.1727150000000000    0.1931610000000000 Sb
   0.0574190000000000    0.2312970000000000    0.7807360000000000 S
   0.4425810000000000    0.7312970000000000    0.7807360000000000 S
   0.5574190000000000    0.2687030000000000    0.2192640000000000 S
   0.1671060000000000    0.6255230000000001    0.0571110000000000 S
   0.6366440000000000    0.5557310000000000    0.5291110000000000 S
   0.1366440000000000    0.9442690000000000    0.4708890000000000 S
   0.9425810000000000    0.7687030000000000    0.2192640000000000 S
   0.3633560000000000    0.4442690000000000    0.4708890000000000 S
   0.8633560000000000    0.0557310000000000    0.5291110000000000 S
   0.6671060000000000    0.8744769999999999    0.9428890000000000 S
   0.3328940000000000    0.1255230000000000    0.0571110000000000 S
   0.8328940000000000    0.3744770000000000    0.9428890000000000 S
