Tl2 V4 Ag2 O12
1.0
   5.2355330000000002    5.5153369999999997    0.0000000000000000
  -5.2355330000000002    5.5153369999999997    0.0000000000000000
   0.0000000000000000    1.5506480000000000    5.7848519999999999
Tl V Ag O
2 4 2 12
direct
   0.2847320000000000    0.7152680000000000    0.2500000000000000 Tl
   0.7152680000000000    0.2847320000000000    0.7500000000000000 Tl
   0.2037740000000000    0.3672040000000000    0.7824950000000001 V
   0.6327960000000000    0.7962260000000000    0.7175049999999999 V
   0.7962260000000000    0.6327960000000000    0.2175050000000000 V
   0.3672040000000000    0.2037740000000000    0.2824950000000000 V
   0.8960890000000000    0.1039110000000000    0.2500000000000000 Ag
   0.1039110000000000    0.8960890000000000    0.7500000000000000 Ag
   0.3510220000000000    0.3304880000000000    0.5166420000000000 O
   0.6695120000000000    0.6489780000000001    0.9833580000000000 O
   0.6489780000000001    0.6695120000000000    0.4833580000000000 O
   0.3304880000000000    0.3510220000000000    0.0166420000000000 O
   0.4277810000000000    0.8886250000000000    0.7729540000000000 O
   0.1113750000000000    0.5722190000000000    0.7270460000000000 O
   0.5722190000000000    0.1113750000000000    0.2270460000000000 O
   0.8886250000000000    0.4277810000000000    0.2729540000000000 O
   0.9555910000000000    0.7932580000000000    0.1440030000000000 O
   0.2067420000000000    0.0444090000000000    0.3559970000000000 O
   0.0444090000000000    0.2067420000000000    0.8559970000000000 O
   0.7932580000000000    0.9555910000000000    0.6440030000000000 O
