Sr2 Mg1 Te1 O6
1.0
   2.8358989999999999    4.9096539999999997    0.0000000000000000
  -2.8358989999999999    4.9096539999999997    0.0000000000000000
   0.0000000000000000    3.3071769999999998    4.6382029999999999
Sr Mg Te O
2 1 1 6
direct
   0.2498260000000000    0.2498260000000000    0.7480320000000000 Sr
   0.7501740000000000    0.7501740000000000    0.2519680000000000 Sr
   0.0000000000000000    0.0000000000000000    0.5000000000000000 Mg
   0.5000000000000000    0.5000000000000000    0.0000000000000000 Te
   0.7414220000000000    0.7414220000000000    0.8009430000000000 O
   0.2585780000000000    0.2585780000000000    0.1990570000000000 O
   0.7200420000000000    0.2365000000000000    0.2620640000000000 O
   0.7635000000000000    0.2799580000000000    0.7379360000000000 O
   0.2799580000000000    0.7635000000000000    0.7379360000000000 O
   0.2365000000000000    0.7200420000000000    0.2620640000000000 O
