Zn6 P4 O16
1.0
   2.8350330000000001    4.1629360000000002    0.0000000000000000
  -2.8350330000000001    4.1629360000000002    0.0000000000000000
   0.0000000000000000    3.9171309999999999   15.0217060000000000
Zn P O
6 4 16
direct
   0.8289879999999999    0.7247660000000000    0.4329760000000000 Zn
   0.7520620000000000    0.2479380000000000    0.2500000000000000 Zn
   0.7247660000000000    0.8289879999999999    0.9329760000000000 Zn
   0.2752340000000000    0.1710120000000000    0.0670240000000000 Zn
   0.2479380000000000    0.7520620000000000    0.7500000000000000 Zn
   0.1710120000000000    0.2752340000000000    0.5670240000000000 Zn
   0.9049469999999999    0.7666420000000000    0.1279280000000000 P
   0.0950530000000000    0.2333580000000000    0.8720720000000000 P
   0.2333590000000000    0.0950530000000000    0.3720720000000000 P
   0.7666410000000000    0.9049469999999999    0.6279280000000000 P
   0.0296190000000000    0.9735090000000000    0.6467060000000000 O
   0.6306430000000000    0.7763130000000000    0.7163960000000000 O
   0.5671540000000000    0.1818380000000000    0.5801760000000000 O
   0.9735090000000000    0.0296190000000000    0.1467060000000000 O
   0.9703810000000000    0.0264910000000000    0.3532940000000000 O
   0.7763130000000000    0.6306430000000000    0.2163960000000000 O
   0.0264910000000000    0.9703810000000000    0.8532940000000000 O
   0.4328460000000000    0.8181619999999999    0.4198240000000000 O
   0.2236870000000000    0.3693570000000000    0.7836040000000000 O
   0.6763730000000000    0.8933990000000001    0.0612960000000000 O
   0.8181619999999999    0.4328460000000000    0.9198240000000000 O
   0.3236270000000000    0.1066010000000000    0.9387040000000000 O
   0.8933990000000001    0.6763730000000000    0.5612960000000000 O
   0.1818380000000000    0.5671540000000000    0.0801760000000000 O
   0.1066010000000000    0.3236270000000000    0.4387040000000000 O
   0.3693570000000000    0.2236870000000000    0.2836040000000000 O
