Na8 Al8 Se16
1.0
   5.4127619999999999    5.4122230000000000    0.0000000000000000
  -5.4127619999999999    5.4122230000000000    0.0000000000000000
   0.0000000000000000    2.7231960000000002   14.0474099999999993
Na Al Se
8 8 16
direct
   0.2214170000000000    0.8464680000000000    0.1192470000000000 Na
   0.1535320000000000    0.7785830000000000    0.3807530000000000 Na
   0.7785830000000000    0.1535320000000000    0.8807530000000000 Na
   0.8464680000000000    0.2214170000000000    0.6192470000000000 Na
   0.6575980000000000    0.7808070000000000    0.3727360000000000 Na
   0.2191930000000000    0.3424020000000000    0.1272640000000000 Na
   0.3424020000000000    0.2191930000000000    0.6272640000000000 Na
   0.7808070000000000    0.6575980000000000    0.8727360000000000 Na
   0.7123410000000000    0.0904960000000000    0.1518180000000000 Al
   0.9095040000000000    0.2876590000000000    0.3481820000000000 Al
   0.2876590000000000    0.9095040000000000    0.8481820000000000 Al
   0.0904960000000000    0.7123410000000000    0.6518180000000000 Al
   0.4163440000000000    0.2877230000000000    0.3483390000000000 Al
   0.7122770000000000    0.5836560000000000    0.1516610000000000 Al
   0.5836560000000000    0.7122770000000000    0.6516610000000000 Al
   0.2877230000000000    0.4163440000000000    0.8483390000000000 Al
   0.9460200000000000    0.0539800000000000    0.2500000000000000 Se
   0.0539800000000000    0.9460200000000000    0.7500000000000000 Se
   0.4296710000000000    0.5703290000000000    0.2500000000000000 Se
   0.5703290000000000    0.4296710000000000    0.7500000000000000 Se
   0.7369980000000000    0.8626180000000000    0.0501190000000000 Se
   0.1373820000000000    0.2630020000000000    0.4498810000000000 Se
   0.2630020000000000    0.1373820000000000    0.9498810000000000 Se
   0.8626180000000000    0.7369980000000000    0.5501190000000000 Se
   0.4296030000000000    0.0541500000000000    0.2501390000000000 Se
   0.9458500000000000    0.5703970000000000    0.2498610000000000 Se
   0.5703970000000000    0.9458500000000000    0.7498610000000000 Se
   0.0541500000000000    0.4296030000000000    0.7501390000000000 Se
   0.6363610000000000    0.2607040000000000    0.4536300000000000 Se
   0.7392960000000000    0.3636390000000000    0.0463700000000000 Se
   0.3636390000000000    0.7392960000000000    0.5463700000000000 Se
   0.2607040000000000    0.6363610000000000    0.9536300000000000 Se
