Y4 Be2 Al2 B2 O14
1.0
   7.3788470000000004    0.0000000000000000    0.0000000000000000
   0.0000000000000000    4.7549010000000003    0.0000000000000000
   0.0000000000000000    0.0336040000000000    7.3859940000000002
Y Be Al B O
4 2 2 2 14
direct
   0.6623850000000000    0.5084320000000000    0.5775270000000000 Y
   0.1623850000000000    0.4915680000000000    0.4224730000000000 Y
   0.3351650000000000    0.5061880000000000    0.9042860000000000 Y
   0.8351650000000000    0.4938120000000000    0.0957140000000000 Y
   0.8645380000000000    0.9450300000000000    0.3857840000000000 Be
   0.3645380000000000    0.0549700000000000    0.6142160000000000 Be
   0.4980360000000000    0.0003480000000000    0.2476710000000000 Al
   0.9980360000000000    0.9996520000000000    0.7523290000000000 Al
   0.1361890000000000    0.9356570000000000    0.1137860000000000 B
   0.6361890000000000    0.0643430000000000    0.8862139999999999 B
   0.5814980000000000    0.2073660000000000    0.0643810000000000 O
   0.0814980000000000    0.7926339999999999    0.9356190000000000 O
   0.4228980000000000    0.2195480000000000    0.4217720000000000 O
   0.9228980000000000    0.7804520000000000    0.5782280000000000 O
   0.6729250000000000    0.7782590000000000    0.3208410000000000 O
   0.1729250000000000    0.2217410000000000    0.6791590000000000 O
   0.3158080000000000    0.7953910000000000    0.1624070000000000 O
   0.8158080000000000    0.2046090000000000    0.8375930000000000 O
   0.8600490000000000    0.2789720000000000    0.3862270000000000 O
   0.3600490000000000    0.7210280000000000    0.6137730000000000 O
   0.1415250000000000    0.2414880000000000    0.1047820000000000 O
   0.6415250000000000    0.7585120000000000    0.8952180000000000 O
   0.5089840000000000    0.1802860000000000    0.7550690000000000 O
   0.0089840000000000    0.8197140000000001    0.2449310000000000 O
