Ba4 In2 Ga2 O10
1.0
  -3.0064799999999998    3.1050300000000002    7.8929080000000003
   3.0064799999999998   -3.1050300000000002    7.8929080000000003
   3.0064799999999998    3.1050300000000002   -7.8929080000000003
Ba In Ga O
4 2 2 10
direct
   0.3875300000000000    0.8997380000000000    0.5248860000000000 Ba
   0.6124700000000000    0.1373560000000000    0.5122090000000000 Ba
   0.1251480000000000    0.6373560000000000    0.5248860000000000 Ba
   0.8748520000000000    0.3997380000000000    0.5122090000000000 Ba
   0.5000000000000000    0.5164430000000000    0.0164430000000000 In
   0.0000000000000000    0.0164430000000000    0.0164430000000000 In
   0.1847690000000000    0.2618500000000000    0.9466190000000000 Ga
   0.8152310000000000    0.7618500000000000    0.0770810000000000 Ga
   0.7605290000000000    0.2764590000000000    0.0156780000000000 O
   0.2394710000000000    0.2551480000000000    0.5159300000000000 O
   0.2392180000000000    0.7551480000000000    0.0156780000000000 O
   0.7607820000000000    0.7764590000000000    0.5159300000000000 O
   0.4238460000000000    0.3649560000000000    0.0812880000000000 O
   0.5761540000000001    0.6574410000000001    0.9411090000000000 O
   0.2163320000000000    0.1574410000000000    0.0812880000000000 O
   0.7836680000000000    0.8649559999999999    0.9411090000000000 O
   0.9901950000000000    0.5032070000000000    0.9934020000000000 O
   0.0098050000000000    0.0032070000000000    0.5130120000000000 O
