Sr4 V4 P4 O24
1.0
   9.8874990000000000    0.0000000000000000    0.0000000000000000
   0.0000000000000000    5.6189999999999998    0.0000000000000000
   0.0000000000000000    0.2595380000000000    8.5858190000000008
Sr V P O
4 4 4 24
direct
   0.1877710000000000    0.8624290000000000    0.4288760000000000 Sr
   0.6877710000000000    0.1375710000000000    0.0711240000000000 Sr
   0.8122290000000000    0.1375710000000000    0.5711240000000000 Sr
   0.3122290000000000    0.8624290000000000    0.9288760000000000 Sr
   0.0912900000000000    0.3448580000000000    0.0880530000000000 V
   0.5912900000000000    0.6551420000000000    0.4119470000000000 V
   0.9087100000000000    0.6551420000000000    0.9119470000000000 V
   0.4087100000000000    0.3448580000000000    0.5880530000000000 V
   0.8939760000000000    0.6639510000000000    0.2861460000000000 P
   0.3939760000000000    0.3360490000000000    0.2138540000000000 P
   0.1060240000000000    0.3360490000000000    0.7138540000000000 P
   0.6060240000000000    0.6639510000000000    0.7861460000000000 P
   0.9248280000000000    0.8762200000000000    0.3862780000000000 O
   0.4248280000000000    0.1237800000000000    0.1137220000000000 O
   0.0751720000000000    0.1237800000000000    0.6137220000000000 O
   0.5751720000000000    0.8762200000000000    0.8862780000000000 O
   0.0766050000000000    0.6819229999999999    0.9663659999999999 O
   0.5766050000000000    0.3180770000000000    0.5336340000000001 O
   0.9233950000000000    0.3180770000000000    0.0336340000000000 O
   0.4233950000000000    0.6819229999999999    0.4663660000000000 O
   0.1368950000000000    0.0862540000000000    0.1718330000000000 O
   0.6368950000000000    0.9137459999999999    0.3281670000000000 O
   0.8631050000000000    0.9137459999999999    0.8281670000000000 O
   0.3631050000000000    0.0862540000000000    0.6718330000000000 O
   0.3410700000000000    0.2532770000000000    0.3801330000000000 O
   0.8410700000000000    0.7467230000000000    0.1198670000000000 O
   0.6589300000000000    0.7467230000000000    0.6198669999999999 O
   0.1589300000000000    0.2532770000000000    0.8801330000000001 O
   0.4677880000000000    0.5263250000000000    0.7713010000000000 O
   0.9677880000000000    0.4736750000000000    0.7286990000000000 O
   0.5322120000000000    0.4736750000000000    0.2286990000000000 O
   0.0322120000000000    0.5263250000000000    0.2713010000000000 O
   0.2151930000000000    0.5049950000000000    0.6388300000000000 O
   0.7151930000000000    0.4950050000000000    0.8611700000000000 O
   0.7848070000000000    0.4950050000000000    0.3611700000000000 O
   0.2848070000000000    0.5049950000000000    0.1388300000000000 O
