Rb1 La1 O2
1.0
   6.6873139999999998   -1.8784770000000000    0.0000000000000000
   6.6873139999999998    1.8784770000000000    0.0000000000000000
   6.1596469999999997    0.0000000000000000    3.2105440000000001
Rb La O
1 1 2
direct
   0.0000000000000000    0.0000000000000000    0.0000000000000000 Rb
   0.5000000000000000    0.5000000000000000    0.5000000000000000 La
   0.7731789999999999    0.7731789999999999    0.7731789999999999 O
   0.2268210000000000    0.2268210000000000    0.2268210000000000 O
