Na2 Nb2 Se4 O14
1.0
   3.9341460000000001   -5.6538500000000003    0.0000000000000000
   3.9341460000000001    5.6538500000000003    0.0000000000000000
   0.0000000000000000    0.0000000000000000    7.5163510000000002
Na Nb Se O
2 2 4 14
direct
   0.9799660000000000    0.9799660000000000    0.3645910000000000 Na
   0.0200340000000000    0.0200340000000000    0.8645910000000000 Na
   0.5118750000000000    0.5118750000000000    0.9003900000000000 Nb
   0.4881250000000000    0.4881250000000000    0.4003900000000000 Nb
   0.5646800000000000    0.9658130000000000    0.6262430000000000 Se
   0.9658130000000000    0.5646800000000000    0.6262430000000000 Se
   0.4353200000000000    0.0341870000000000    0.1262430000000000 Se
   0.0341870000000000    0.4353200000000000    0.1262430000000000 Se
   0.5465850000000000    0.7989410000000000    0.8103590000000001 O
   0.7989410000000000    0.5465850000000000    0.8103590000000001 O
   0.4534150000000000    0.2010590000000000    0.3103590000000000 O
   0.2010590000000000    0.4534150000000000    0.3103590000000000 O
   0.5437419999999999    0.7937580000000000    0.4444680000000000 O
   0.7937580000000000    0.5437419999999999    0.4444680000000000 O
   0.4562580000000000    0.2062420000000000    0.9444680000000000 O
   0.2062420000000000    0.4562580000000000    0.9444680000000000 O
   0.8192050000000000    0.0985150000000000    0.6222080000000000 O
   0.0985150000000000    0.8192050000000000    0.6222080000000000 O
   0.1807950000000000    0.9014850000000000    0.1222080000000000 O
   0.9014850000000000    0.1807950000000000    0.1222080000000000 O
   0.4128700000000000    0.4128700000000000    0.6314020000000000 O
   0.5871300000000000    0.5871300000000000    0.1314020000000000 O
