Ca1 Ti4 S8
1.0
   7.0821630000000004   -3.4339279999999999    0.0000000000000000
   7.0821630000000004    3.4339279999999999    0.0000000000000000
   5.4171540000000000    0.0000000000000000    5.7099330000000004
Ca Ti S
1 4 8
direct
   0.5000000000000000    0.5000000000000000    0.5000000000000000 Ca
   0.0000000000000000    0.5000000000000000    0.5000000000000000 Ti
   0.5000000000000000    0.0000000000000000    0.5000000000000000 Ti
   0.5000000000000000    0.5000000000000000    0.0000000000000000 Ti
   0.0000000000000000    0.0000000000000000    0.0000000000000000 Ti
   0.2583510000000000    0.7642190000000000    0.7642190000000000 S
   0.2357810000000000    0.2357810000000000    0.7416490000000000 S
   0.7416490000000000    0.2357810000000000    0.2357810000000000 S
   0.2357810000000000    0.7416490000000000    0.2357810000000000 S
   0.2640010000000000    0.2640010000000000    0.2640010000000000 S
   0.7359990000000000    0.7359990000000000    0.7359990000000000 S
   0.7642190000000000    0.2583510000000000    0.7642190000000000 S
   0.7642190000000000    0.7642190000000000    0.2583510000000000 S
