Li6 P2 O8
1.0
   4.9224480000000002    0.0000000000000000    0.0000000000000000
   0.0000000000000000    5.2964019999999996    0.0000000000000000
   0.0000000000000000    0.0000000000000000    6.1761359999999996
Li P O
6 2 8
direct
   0.5094170000000000    0.8445200000000000    0.0000000000000000 Li
   0.0094170000000000    0.1554800000000000    0.5000000000000000 Li
   0.5083630000000000    0.3264340000000000    0.2528730000000000 Li
   0.0083630000000000    0.6735660000000000    0.2471270000000000 Li
   0.0083630000000000    0.6735660000000000    0.7528730000000000 Li
   0.5083630000000000    0.3264340000000000    0.7471270000000000 Li
   0.5014200000000000    0.8242610000000000    0.5000000000000000 P
   0.0014200000000000    0.1757390000000000    0.0000000000000000 P
   0.1070100000000000    0.3135090000000000    0.7928620000000000 O
   0.6021260000000001    0.1035080000000000    0.5000000000000000 O
   0.1851910000000000    0.8183960000000000    0.5000000000000000 O
   0.6851910000000000    0.1816040000000000    0.0000000000000000 O
   0.6070100000000000    0.6864910000000000    0.2928620000000000 O
   0.1070100000000000    0.3135090000000000    0.2071380000000000 O
   0.1021260000000000    0.8964920000000000    0.0000000000000000 O
   0.6070100000000000    0.6864910000000000    0.7071380000000000 O
