K8 Ge8 S20
1.0
   7.7957999999999998    7.7774109999999999    0.0000000000000000
  -7.7957999999999998    7.7774109999999999    0.0000000000000000
   0.0000000000000000    2.2294170000000002    8.6659679999999994
K Ge S
8 8 20
direct
   0.4683290000000000    0.2137310000000000    0.8800960000000000 K
   0.7862690000000000    0.5316710000000000    0.6199040000000000 K
   0.5316710000000000    0.7862700000000000    0.1199040000000000 K
   0.2137300000000000    0.4683290000000000    0.3800960000000000 K
   0.7877200000000000    0.9392330000000000    0.6178560000000000 K
   0.0607670000000000    0.2122800000000000    0.8821440000000000 K
   0.2122800000000000    0.0607670000000000    0.3821440000000000 K
   0.9392330000000000    0.7877200000000000    0.1178560000000000 K
   0.5263980000000000    0.2671080000000000    0.4042380000000000 Ge
   0.7328920000000000    0.4736020000000000    0.0957620000000000 Ge
   0.4736020000000000    0.7328920000000000    0.5957620000000000 Ge
   0.2671080000000000    0.5263980000000000    0.9042380000000000 Ge
   0.2697740000000000    0.8668310000000000    0.8899400000000000 Ge
   0.1331690000000000    0.7302260000000000    0.6100600000000000 Ge
   0.7302260000000000    0.1331690000000000    0.1100600000000000 Ge
   0.8668310000000000    0.2697740000000000    0.3899400000000000 Ge
   0.5416990000000000    0.1146810000000000    0.2600710000000000 S
   0.8853190000000000    0.4583010000000000    0.2399290000000000 S
   0.4583010000000000    0.8853190000000000    0.7399289999999999 S
   0.1146810000000000    0.5416990000000000    0.7600710000000001 S
   0.3209840000000000    0.7552800000000000    0.4510590000000000 S
   0.2447200000000000    0.6790160000000000    0.0489410000000000 S
   0.6790160000000000    0.2447200000000000    0.5489410000000000 S
   0.7552800000000000    0.3209840000000000    0.9510590000000000 S
   0.3510390000000000    0.2431380000000000    0.5554120000000000 S
   0.7568620000000000    0.6489610000000000    0.9445880000000000 S
   0.6489610000000000    0.7568620000000000    0.4445880000000000 S
   0.2431380000000000    0.3510390000000000    0.0554120000000000 S
   0.7529950000000000    0.9931660000000000    0.9701930000000000 S
   0.0068340000000000    0.2470050000000000    0.5298070000000000 S
   0.2470050000000000    0.0068340000000000    0.0298070000000000 S
   0.9931660000000000    0.7529950000000000    0.4701930000000000 S
   0.8846770000000000    0.1153230000000000    0.2500000000000000 S
   0.1153230000000000    0.8846770000000000    0.7500000000000000 S
   0.5449619999999999    0.4550380000000000    0.2500000000000000 S
   0.4550380000000000    0.5449619999999999    0.7500000000000000 S
