Na2 Sc2 Si4 O12
1.0
   4.5772279999999999    4.9992970000000003    0.0000000000000000
  -4.5772279999999999    4.9992970000000003    0.0000000000000000
   0.0000000000000000    1.6399509999999999    5.1673470000000004
Na Sc Si O
2 2 4 12
direct
   0.3002560000000000    0.6997440000000000    0.2500000000000000 Na
   0.6997440000000000    0.3002560000000000    0.7500000000000000 Na
   0.8944299999999999    0.1055700000000000    0.2500000000000000 Sc
   0.1055700000000000    0.8944299999999999    0.7500000000000000 Sc
   0.3770920000000000    0.2037400000000000    0.2552480000000000 Si
   0.2037400000000000    0.3770920000000000    0.7552480000000000 Si
   0.7962600000000000    0.6229080000000000    0.2447520000000000 Si
   0.6229080000000000    0.7962600000000000    0.7447520000000000 Si
   0.3532410000000000    0.3451960000000000    0.4757770000000000 O
   0.6548040000000001    0.6467590000000000    0.0242230000000000 O
   0.6467590000000000    0.6548040000000001    0.5242230000000000 O
   0.3451960000000000    0.3532410000000000    0.9757770000000000 O
   0.6072740000000000    0.1135750000000000    0.1960350000000000 O
   0.8864250000000000    0.3927260000000000    0.3039650000000000 O
   0.3927260000000000    0.8864250000000000    0.8039650000000000 O
   0.1135750000000000    0.6072740000000000    0.6960350000000000 O
   0.0394110000000000    0.1970040000000000    0.8544890000000001 O
   0.8029960000000000    0.9605890000000000    0.6455109999999999 O
   0.9605890000000000    0.8029960000000000    0.1455110000000000 O
   0.1970040000000000    0.0394110000000000    0.3544890000000000 O
