K6 Li2 P4 O14
1.0
   3.0681099999999999   -4.7493840000000001    0.0000000000000000
   3.0681099999999999    4.7493840000000001    0.0000000000000000
   0.0000000000000000    0.0000000000000000   13.5304939999999991
K Li P O
6 2 4 14
direct
   0.1341520000000000    0.1341520000000000    0.0000000000000000 K
   0.8658480000000000    0.8658480000000000    0.5000000000000000 K
   0.7764170000000000    0.4623020000000000    0.1226720000000000 K
   0.4623020000000000    0.7764170000000000    0.8773280000000000 K
   0.2235830000000000    0.5376980000000000    0.6226720000000000 K
   0.5376980000000000    0.2235830000000000    0.3773280000000000 K
   0.0120920000000000    0.9879080000000000    0.2500000000000000 Li
   0.9879080000000000    0.0120920000000000    0.7500000000000000 Li
   0.4419340000000000    0.8241430000000000    0.1554630000000000 P
   0.8241430000000000    0.4419340000000000    0.8445370000000000 P
   0.5580660000000000    0.1758570000000000    0.6554630000000000 P
   0.1758570000000000    0.5580660000000000    0.3445370000000000 P
   0.3407290000000000    0.0314060000000000    0.1805060000000000 O
   0.0314060000000000    0.3407290000000000    0.8194939999999999 O
   0.6592710000000001    0.9685940000000000    0.6805060000000001 O
   0.9685940000000000    0.6592710000000001    0.3194940000000000 O
   0.7403180000000000    0.9390420000000000    0.1480450000000000 O
   0.9390420000000000    0.7403180000000000    0.8519550000000000 O
   0.2596820000000000    0.0609580000000000    0.6480450000000000 O
   0.0609580000000000    0.2596820000000000    0.3519550000000000 O
   0.3049080000000000    0.6550780000000000    0.0668320000000000 O
   0.6550780000000000    0.3049080000000000    0.9331680000000000 O
   0.6950920000000000    0.3449220000000000    0.5668320000000000 O
   0.3449220000000000    0.6950920000000000    0.4331680000000000 O
   0.3772110000000000    0.6227890000000000    0.2500000000000000 O
   0.6227890000000000    0.3772110000000000    0.7500000000000000 O
