In15 Sn1 O24
1.0
   5.1623580000000002   -7.2900809999999998    0.0000000000000000
   5.1623580000000002    7.2900809999999998    0.0000000000000000
  -5.1324100000000001    0.0000000000000000    7.3111969999999999
In Sn O
15 1 24
direct
   0.9651530000000000    0.7495970000000000    0.2163740000000000 In
   0.7149890000000000    0.4664700000000000    0.7493190000000000 In
   0.7836260000000000    0.0348470000000000    0.2504030000000000 In
   0.2504030000000000    0.7836260000000000    0.0348470000000000 In
   0.2506810000000000    0.2850110000000000    0.5335299999999999 In
   0.5000000000000000    0.5000000000000000    0.0000000000000000 In
   0.5335299999999999    0.2506810000000000    0.2850110000000000 In
   0.0000000000000000    0.5000000000000000    0.5000000000000000 In
   0.4664700000000000    0.7493190000000000    0.7149890000000000 In
   0.5000000000000000    0.0000000000000000    0.5000000000000000 In
   0.7493190000000000    0.7149890000000000    0.4664700000000000 In
   0.7495970000000000    0.2163740000000000    0.9651530000000000 In
   0.2850110000000000    0.5335299999999999    0.2506810000000000 In
   0.2163740000000000    0.9651530000000000    0.7495970000000000 In
   0.0348470000000000    0.2504030000000000    0.7836260000000000 In
   0.0000000000000000    0.0000000000000000    0.0000000000000000 Sn
   0.0458480000000000    0.0395030000000000    0.2631240000000000 O
   0.4554800000000000    0.2275480000000000    0.4931210000000000 O
   0.7298370000000000    0.7743090000000000    0.2362580000000000 O
   0.0395030000000000    0.2631240000000000    0.0458480000000000 O
   0.5344900000000000    0.9929280000000000    0.2620800000000000 O
   0.2275480000000000    0.4931210000000000    0.4554800000000000 O
   0.7637420000000000    0.2701630000000000    0.2256910000000000 O
   0.7379200000000000    0.4655100000000000    0.0070720000000000 O
   0.5068790000000000    0.5445200000000000    0.7724520000000000 O
   0.2631240000000000    0.0458480000000000    0.0395030000000000 O
   0.2256910000000000    0.7637420000000000    0.2701630000000000 O
   0.9929280000000000    0.2620800000000000    0.5344900000000000 O
   0.0070720000000000    0.7379200000000000    0.4655100000000000 O
   0.4931210000000000    0.4554800000000000    0.2275480000000000 O
   0.7743090000000000    0.2362580000000000    0.7298370000000000 O
   0.7368760000000000    0.9541520000000000    0.9604970000000000 O
   0.2362580000000000    0.7298370000000000    0.7743090000000000 O
   0.2620800000000000    0.5344900000000000    0.9929280000000000 O
   0.4655100000000000    0.0070720000000000    0.7379200000000000 O
   0.7724520000000000    0.5068790000000000    0.5445200000000000 O
   0.2701630000000000    0.2256910000000000    0.7637420000000000 O
   0.9604970000000000    0.7368760000000000    0.9541520000000000 O
   0.5445200000000000    0.7724520000000000    0.5068790000000000 O
   0.9541520000000000    0.9604970000000000    0.7368760000000000 O
