K2 Mo6 S6
1.0
   4.5005230000000003   -7.7951340000000000    0.0000000000000000
   4.5005230000000003    7.7951340000000000    0.0000000000000000
   0.0000000000000000    0.0000000000000000    4.4553140000000004
K Mo S
2 6 6
direct
   0.3333330000000000    0.6666670000000000    0.7500000000000000 K
   0.6666670000000000    0.3333330000000000    0.2500000000000000 K
   0.9663780000000000    0.8143020000000000    0.2500000000000000 Mo
   0.8479240000000000    0.0336220000000000    0.2500000000000000 Mo
   0.1520760000000000    0.9663780000000000    0.7500000000000000 Mo
   0.0336220000000000    0.1856980000000000    0.7500000000000000 Mo
   0.1856980000000000    0.1520760000000000    0.2500000000000000 Mo
   0.8143020000000000    0.8479240000000000    0.7500000000000000 Mo
   0.9354690000000000    0.6520690000000000    0.7500000000000000 S
   0.0645310000000000    0.3479310000000000    0.2500000000000000 S
   0.2834000000000000    0.9354690000000000    0.2500000000000000 S
   0.6520690000000000    0.7166000000000000    0.2500000000000000 S
   0.3479310000000000    0.2834000000000000    0.7500000000000000 S
   0.7166000000000000    0.0645310000000000    0.7500000000000000 S
