Sr6 B4 O12
1.0
   5.0329670000000002   -4.5554480000000002    0.0000000000000000
   5.0329670000000002    4.5554480000000002    0.0000000000000000
   0.9097320000000000    0.0000000000000000    6.7272020000000001
Sr B O
6 4 12
direct
   0.7500000000000000    0.1024730000000000    0.3975270000000000 Sr
   0.3975270000000000    0.7500000000000000    0.1024730000000000 Sr
   0.1024730000000000    0.3975270000000000    0.7500000000000000 Sr
   0.2500000000000000    0.8975270000000000    0.6024730000000000 Sr
   0.6024730000000000    0.2500000000000000    0.8975270000000000 Sr
   0.8975270000000000    0.6024730000000000    0.2500000000000000 Sr
   0.3839490000000000    0.3839490000000000    0.3839490000000000 B
   0.6160510000000000    0.6160510000000000    0.6160510000000000 B
   0.8839490000000000    0.8839490000000000    0.8839490000000000 B
   0.1160510000000000    0.1160510000000000    0.1160510000000000 B
   0.7272670000000000    0.8940390000000000    0.0339500000000000 O
   0.0339500000000000    0.7272670000000000    0.8940390000000000 O
   0.8940390000000000    0.0339500000000000    0.7272670000000000 O
   0.6059610000000000    0.7727330000000000    0.4660500000000000 O
   0.7727330000000000    0.4660500000000000    0.6059610000000000 O
   0.4660500000000000    0.6059610000000000    0.7727330000000000 O
   0.9660500000000000    0.2727330000000000    0.1059610000000000 O
   0.2727330000000000    0.1059610000000000    0.9660500000000000 O
   0.1059610000000000    0.9660500000000000    0.2727330000000000 O
   0.2272670000000000    0.5339500000000000    0.3940390000000000 O
   0.5339500000000000    0.3940390000000000    0.2272670000000000 O
   0.3940390000000000    0.2272670000000000    0.5339500000000000 O
