Na8 As4 O14
1.0
   5.1436970000000004    3.0276770000000002    0.0000000000000000
  -5.1436970000000004    3.0276770000000002    0.0000000000000000
   0.0000000000000000    0.5983640000000000   12.5135170000000002
Na As O
8 4 14
direct
   0.0209340000000000    0.6649470000000000    0.8721750000000000 Na
   0.3350530000000000    0.9790660000000000    0.6278250000000000 Na
   0.9790660000000000    0.3350530000000000    0.1278250000000000 Na
   0.6649470000000000    0.0209340000000000    0.3721750000000000 Na
   0.2952240000000000    0.3231760000000000    0.4048960000000000 Na
   0.6768240000000000    0.7047760000000000    0.0951040000000000 Na
   0.7047760000000000    0.6768240000000000    0.5951040000000000 Na
   0.3231760000000000    0.2952240000000000    0.9048960000000000 Na
   0.9917100000000000    0.2963400000000000    0.6390030000000000 As
   0.7036600000000000    0.0082900000000000    0.8609970000000000 As
   0.0082900000000000    0.7036600000000000    0.3609970000000000 As
   0.2963400000000000    0.9917100000000000    0.1390030000000000 As
   0.5553180000000000    0.9783800000000000    0.1855420000000000 O
   0.0216200000000000    0.4446820000000000    0.3144580000000000 O
   0.4446820000000000    0.0216200000000000    0.8144580000000000 O
   0.9783800000000000    0.5553180000000000    0.6855420000000000 O
   0.3570720000000000    0.2876990000000000    0.0939650000000000 O
   0.7123010000000000    0.6429280000000001    0.4060350000000000 O
   0.6429280000000001    0.7123010000000000    0.9060350000000000 O
   0.2876990000000000    0.3570720000000000    0.5939650000000000 O
   0.1121220000000000    0.7556180000000000    0.0561490000000000 O
   0.2443820000000000    0.8878779999999999    0.4438510000000000 O
   0.8878779999999999    0.2443820000000000    0.9438510000000000 O
   0.7556180000000000    0.1121220000000000    0.5561490000000000 O
   0.9340260000000000    0.0659740000000000    0.7500000000000000 O
   0.0659740000000000    0.9340260000000000    0.2500000000000000 O
