Cd1 As2 O6
1.0
   2.4642510000000000   -4.2682079999999996    0.0000000000000000
   2.4642510000000000    4.2682079999999996    0.0000000000000000
   0.0000000000000000    0.0000000000000000    4.9853249999999996
Cd As O
1 2 6
direct
   0.0000000000000000    0.0000000000000000    0.0000000000000000 Cd
   0.6666670000000000    0.3333330000000000    0.5000000000000000 As
   0.3333330000000000    0.6666670000000000    0.5000000000000000 As
   0.6235610000000000    0.6235610000000000    0.7093680000000000 O
   0.3764390000000000    0.0000000000000000    0.7093680000000000 O
   0.0000000000000000    0.3764390000000000    0.7093680000000000 O
   0.6235610000000000    0.0000000000000000    0.2906320000000000 O
   0.0000000000000000    0.6235610000000000    0.2906320000000000 O
   0.3764390000000000    0.3764390000000000    0.2906320000000000 O
