Ti2 Nb6 Se12
1.0
   3.0268920000000001   -5.2427299999999999    0.0000000000000000
   3.0268920000000001    5.2427299999999999    0.0000000000000000
   0.0000000000000000    0.0000000000000000   13.1258029999999994
Ti Nb Se
2 6 12
direct
   0.3333330000000000    0.6666670000000000    0.2500000000000000 Ti
   0.6666670000000000    0.3333330000000000    0.7500000000000000 Ti
   0.0000000000000000    0.0000000000000000    0.5000000000000000 Nb
   0.0000000000000000    0.0000000000000000    0.0000000000000000 Nb
   0.3333330000000000    0.6666670000000000    0.0001680000000000 Nb
   0.6666670000000000    0.3333330000000000    0.9998320000000001 Nb
   0.6666670000000000    0.3333330000000000    0.5001679999999999 Nb
   0.3333330000000000    0.6666670000000000    0.4998320000000000 Nb
   0.3332070000000000    0.3295390000000000    0.3715920000000000 Se
   0.6704610000000000    0.0036680000000000    0.3715920000000000 Se
   0.9963320000000000    0.6667930000000000    0.3715920000000000 Se
   0.3295390000000000    0.3332070000000000    0.6284080000000000 Se
   0.0036680000000000    0.6704610000000000    0.6284080000000000 Se
   0.6667930000000000    0.9963320000000000    0.6284080000000000 Se
   0.6667930000000000    0.6704610000000000    0.8715920000000000 Se
   0.3295390000000000    0.9963320000000000    0.8715920000000000 Se
   0.0036680000000000    0.3332070000000000    0.8715920000000000 Se
   0.6704610000000000    0.6667930000000000    0.1284080000000000 Se
   0.9963320000000000    0.3295390000000000    0.1284080000000000 Se
   0.3332070000000000    0.0036680000000000    0.1284080000000000 Se
