K2 Rb1 Sc1 V2 O8
1.0
   2.9275500000000001   -5.0706650000000000    0.0000000000000000
   2.9275500000000001    5.0706650000000000    0.0000000000000000
   0.0000000000000000    0.0000000000000000    7.6712860000000003
K Rb Sc V O
2 1 1 2 8
direct
   0.3333330000000000    0.6666670000000000    0.6976240000000000 K
   0.6666670000000000    0.3333330000000000    0.3023760000000000 K
   0.0000000000000000    0.0000000000000000    0.0000000000000000 Rb
   0.0000000000000000    0.0000000000000000    0.5000000000000000 Sc
   0.3333330000000000    0.6666670000000000    0.2581720000000000 V
   0.6666670000000000    0.3333330000000000    0.7418280000000000 V
   0.3333330000000000    0.6666670000000000    0.0383760000000000 O
   0.6666670000000000    0.3333330000000000    0.9616240000000000 O
   0.1695550000000000    0.8304450000000000    0.3365620000000000 O
   0.8304450000000000    0.1695550000000000    0.6634380000000000 O
   0.1695550000000000    0.3391100000000000    0.3365620000000000 O
   0.8304450000000000    0.6608900000000000    0.6634380000000000 O
   0.6608900000000000    0.8304450000000000    0.3365620000000000 O
   0.3391100000000000    0.1695550000000000    0.6634380000000000 O
