Bi8 Se4 O20
1.0
   2.7848760000000001   -8.3121510000000001    0.0000000000000000
   2.7848760000000001    8.3121510000000001    0.0000000000000000
   0.0000000000000000    0.0000000000000000   11.6130080000000007
Bi Se O
8 4 20
direct
   0.7720150000000000    0.2720150000000000    0.6143860000000000 Bi
   0.2720150000000000    0.7720150000000000    0.3856140000000000 Bi
   0.2418120000000000    0.7418120000000000    0.8713950000000000 Bi
   0.7418120000000000    0.2418120000000000    0.1286050000000000 Bi
   0.9017720000000000    0.0713290000000000    0.3908170000000000 Bi
   0.0713290000000000    0.9017720000000000    0.6091830000000000 Bi
   0.4017720000000000    0.5713290000000000    0.6091830000000000 Bi
   0.5713290000000000    0.4017720000000000    0.3908170000000000 Bi
   0.3940150000000000    0.5725410000000000    0.1434330000000000 Se
   0.5725410000000000    0.3940150000000000    0.8565670000000000 Se
   0.8940150000000000    0.0725410000000000    0.8565670000000000 Se
   0.0725410000000000    0.8940150000000000    0.1434330000000000 Se
   0.1254320000000000    0.4396110000000000    0.2078730000000000 O
   0.4396110000000000    0.1254320000000000    0.7921270000000000 O
   0.6254320000000000    0.9396110000000000    0.7921270000000000 O
   0.9396110000000000    0.6254320000000000    0.2078730000000000 O
   0.5619820000000000    0.8868450000000000    0.4925150000000000 O
   0.8868450000000000    0.5619820000000000    0.5074850000000000 O
   0.0619820000000000    0.3868450000000000    0.5074850000000000 O
   0.3868450000000000    0.0619820000000000    0.4925150000000000 O
   0.1353090000000000    0.6353090000000000    0.6991640000000000 O
   0.6353090000000000    0.1353090000000000    0.3008360000000000 O
   0.5459900000000000    0.8476310000000000    0.0796130000000000 O
   0.8476310000000000    0.5459900000000000    0.9203870000000000 O
   0.1736440000000000    0.0666170000000000    0.2660960000000000 O
   0.0666170000000000    0.1736440000000000    0.7339040000000000 O
   0.6736440000000000    0.5666170000000000    0.7339040000000000 O
   0.5666170000000000    0.6736440000000000    0.2660960000000000 O
   0.2659770000000000    0.2659770000000000    0.5000000000000000 O
   0.7659770000000000    0.7659770000000000    0.5000000000000000 O
   0.3476310000000000    0.0459900000000000    0.0796130000000000 O
   0.0459900000000000    0.3476310000000000    0.9203870000000000 O
