Na6 Ca4 Ta2 O12
1.0
   0.0000000000000000    4.7898839999999998    9.8954350000000009
   3.3281610000000001    0.0000000000000000    9.8954350000000009
   3.3281610000000001    4.7898839999999998    0.0000000000000000
Na Ca Ta O
6 4 2 12
direct
   0.0000000000000000    0.0000000000000000    0.0000000000000000 Na
   0.0863300000000000    0.0863300000000000    0.4136700000000000 Na
   0.8363300000000000    0.8363300000000000    0.1636700000000000 Na
   0.1636700000000000    0.1636700000000000    0.8363300000000000 Na
   0.2500000000000000    0.2500000000000000    0.2500000000000000 Na
   0.4136700000000000    0.4136700000000000    0.0863300000000000 Na
   0.5805680000000000    0.5805680000000000    0.9194320000000000 Ca
   0.9194320000000000    0.9194320000000000    0.5805680000000000 Ca
   0.6694320000000000    0.6694320000000000    0.3305680000000000 Ca
   0.3305680000000000    0.3305680000000000    0.6694320000000000 Ca
   0.7500000000000000    0.7500000000000000    0.7500000000000000 Ta
   0.5000000000000000    0.5000000000000000    0.5000000000000000 Ta
   0.2880550000000000    0.7119450000000001    0.2880550000000000 O
   0.7119450000000001    0.2880550000000000    0.7119450000000001 O
   0.9619450000000001    0.5380549999999999    0.9619450000000001 O
   0.5380549999999999    0.9619450000000001    0.5380549999999999 O
   0.2068900000000000    0.6459440000000000    0.7839800000000000 O
   0.3631860000000000    0.7839800000000000    0.6459440000000000 O
   0.7839800000000000    0.3631860000000000    0.2068900000000000 O
   0.6459440000000000    0.2068900000000000    0.3631860000000000 O
   0.6040560000000000    0.0431100000000000    0.8868140000000000 O
   0.8868140000000000    0.4660200000000000    0.6040560000000000 O
   0.4660200000000000    0.8868140000000000    0.0431100000000000 O
   0.0431100000000000    0.6040560000000000    0.4660200000000000 O
