Na1 Bi1 Mo2 O8
1.0
  -2.6644280000000000    2.6644280000000000    5.8244889999999998
   2.6644280000000000   -2.6644280000000000    5.8244889999999998
   2.6644280000000000    2.6644280000000000   -5.8244889999999998
Na Bi Mo O
1 1 2 8
direct
   0.7500000000000000    0.2500000000000000    0.5000000000000000 Na
   0.5000000000000000    0.5000000000000000    0.0000000000000000 Bi
   0.0000000000000000    0.0000000000000000    0.0000000000000000 Mo
   0.2500000000000000    0.7500000000000000    0.5000000000000000 Mo
   0.4809430000000000    0.0781660000000000    0.8865640000000000 O
   0.1916020000000000    0.5943790000000000    0.1134360000000000 O
   0.9218340000000000    0.8083979999999999    0.4027780000000000 O
   0.4056210000000000    0.5190570000000000    0.5972220000000000 O
   0.3246570000000000    0.9267280000000000    0.0866890000000000 O
   0.8400390000000000    0.2379680000000000    0.9133110000000000 O
   0.0732720000000000    0.1599610000000000    0.3979290000000000 O
   0.7620320000000000    0.6753430000000000    0.6020710000000000 O
