Ta4 Se2
1.0
   3.4043180000000000    0.0000000000000000    0.0000000000000000
   0.0000000000000000    3.4043180000000000    0.0000000000000000
   0.0000000000000000    0.0000000000000000   10.3379849999999998
Ta Se
4 2
direct
   0.5000000000000000    0.0000000000000000    0.7695580000000000 Ta
   0.0000000000000000    0.5000000000000000    0.2304420000000000 Ta
   0.0000000000000000    0.5000000000000000    0.9268640000000000 Ta
   0.5000000000000000    0.0000000000000000    0.0731360000000000 Ta
   0.0000000000000000    0.5000000000000000    0.6507280000000000 Se
   0.5000000000000000    0.0000000000000000    0.3492720000000000 Se
