Mg1 In2 Se4
1.0
  13.3544870000000007   -2.0710750000000000    0.0000000000000000
  13.3544870000000007    2.0710750000000000    0.0000000000000000
  13.0332960000000000    0.0000000000000000    3.5727989999999998
Mg In Se
1 2 4
direct
   0.0000000000000000    0.0000000000000000    0.0000000000000000 Mg
   0.7633600000000000    0.7633600000000000    0.7633600000000000 In
   0.2366400000000000    0.2366400000000000    0.2366400000000000 In
   0.8709540000000000    0.8709540000000000    0.8709540000000000 Se
   0.6998270000000000    0.6998270000000000    0.6998270000000000 Se
   0.1290460000000000    0.1290460000000000    0.1290460000000000 Se
   0.3001730000000000    0.3001730000000000    0.3001730000000000 Se
