Ce2 Zn2 P2 O2
1.0
  10.3959539999999997   -1.9929800000000000    0.0000000000000000
  10.3959539999999997    1.9929800000000000    0.0000000000000000
  10.0138859999999994    0.0000000000000000    3.4307330000000000
Ce Zn P O
2 2 2 2
direct
   0.6189640000000000    0.6189640000000000    0.6189640000000000 Ce
   0.3810360000000000    0.3810360000000000    0.3810360000000000 Ce
   0.1960930000000000    0.1960930000000000    0.1960930000000000 Zn
   0.8039070000000000    0.8039070000000000    0.8039070000000000 Zn
   0.1136940000000000    0.1136940000000000    0.1136940000000000 P
   0.8863060000000000    0.8863060000000000    0.8863060000000000 P
   0.6950180000000000    0.6950180000000000    0.6950180000000000 O
   0.3049820000000000    0.3049820000000000    0.3049820000000000 O
