Sb4 As4 O12
1.0
  13.6524629999999991    0.0000000000000000    0.0000000000000000
   0.0000000000000000    4.6586259999999999    0.0000000000000000
   0.0000000000000000    4.1038290000000002    5.6320949999999996
Sb As O
4 4 12
direct
   0.3519570000000000    0.6648830000000000    0.3381890000000000 Sb
   0.8519570000000000    0.3351170000000000    0.1618110000000000 Sb
   0.6480430000000000    0.3351170000000000    0.6618110000000000 Sb
   0.1480430000000000    0.6648830000000000    0.8381890000000000 Sb
   0.0991800000000000    0.7821680000000000    0.2539510000000000 As
   0.5991800000000000    0.2178320000000000    0.2460490000000000 As
   0.9008200000000000    0.2178320000000000    0.7460490000000000 As
   0.4008200000000000    0.7821680000000000    0.7539510000000000 As
   0.3585560000000000    0.1483360000000000    0.4589130000000000 O
   0.8585560000000000    0.8516640000000000    0.0410870000000000 O
   0.6414440000000000    0.8516640000000000    0.5410870000000000 O
   0.1414440000000000    0.1483360000000000    0.9589130000000000 O
   0.0986870000000000    0.4850960000000000    0.1659800000000000 O
   0.5986870000000000    0.5149040000000000    0.3340200000000000 O
   0.9013130000000000    0.5149040000000000    0.8340200000000000 O
   0.4013130000000000    0.4850960000000000    0.6659800000000000 O
   0.2105380000000000    0.6399840000000000    0.4294370000000000 O
   0.7105380000000000    0.3600160000000000    0.0705630000000000 O
   0.7894620000000000    0.3600160000000000    0.5705630000000000 O
   0.2894620000000000    0.6399840000000000    0.9294370000000000 O
