Pd6 Pb4 S4
1.0
  -4.2417829999999999    4.2417829999999999    4.2417829999999999
   4.2417829999999999   -4.2417829999999999    4.2417829999999999
   4.2417829999999999    4.2417829999999999   -4.2417829999999999
Pd Pb S
6 4 4
direct
   0.9821170000000000    0.2321170000000000    0.7500000000000000 Pd
   0.7500000000000000    0.9821170000000000    0.2321170000000000 Pd
   0.2321170000000000    0.7500000000000000    0.9821170000000000 Pd
   0.5178830000000000    0.2678830000000000    0.2500000000000000 Pd
   0.2500000000000000    0.5178830000000000    0.2678830000000000 Pd
   0.2678830000000000    0.2500000000000000    0.5178830000000000 Pd
   0.5048010000000001    0.5000000000000000    0.0000000000000000 Pb
   0.5000000000000000    0.0000000000000000    0.5048010000000001 Pb
   0.9951989999999999    0.9951989999999999    0.9951989999999999 Pb
   0.0000000000000000    0.5048010000000001    0.5000000000000000 Pb
   0.5000000000000000    0.0000000000000000    0.9502010000000000 S
   0.5497990000000000    0.5497990000000000    0.5497990000000000 S
   0.0000000000000000    0.9502010000000000    0.5000000000000000 S
   0.9502010000000000    0.5000000000000000    0.0000000000000000 S
