Ba2 Cd1 Os1 O6
1.0
   0.0000000000000000    4.2228310000000002    4.2228310000000002
   4.2228310000000002    0.0000000000000000    4.2228310000000002
   4.2228310000000002    4.2228310000000002    0.0000000000000000
Ba Cd Os O
2 1 1 6
direct
   0.2500000000000000    0.2500000000000000    0.2500000000000000 Ba
   0.7500000000000000    0.7500000000000000    0.7500000000000000 Ba
   0.5000000000000000    0.5000000000000000    0.5000000000000000 Cd
   0.0000000000000000    0.0000000000000000    0.0000000000000000 Os
   0.7696640000000000    0.2303360000000000    0.2303360000000000 O
   0.2303360000000000    0.7696640000000000    0.7696640000000000 O
   0.2303360000000000    0.7696640000000000    0.2303360000000000 O
   0.7696640000000000    0.2303360000000000    0.7696640000000000 O
   0.2303360000000000    0.2303360000000000    0.7696640000000000 O
   0.7696640000000000    0.7696640000000000    0.2303360000000000 O
