Ca4 Sc2 Nb2 O12
1.0
   5.7274190000000003    0.0000000000000000    0.0000000000000000
   0.0000000000000000    5.5355509999999999    0.0000000000000000
   0.0000000000000000    5.5395430000000001    7.9445699999999997
Ca Sc Nb O
4 2 2 12
direct
   0.4472210000000000    0.2357080000000000    0.7507960000000000 Ca
   0.5527790000000000    0.7642920000000000    0.2492040000000000 Ca
   0.9472210000000000    0.7642920000000000    0.7492040000000000 Ca
   0.0527790000000000    0.2357080000000000    0.2507960000000000 Ca
   0.0000000000000000    0.0000000000000000    0.0000000000000000 Sc
   0.5000000000000000    0.0000000000000000    0.5000000000000000 Sc
   0.0000000000000000    0.5000000000000000    0.5000000000000000 Nb
   0.5000000000000000    0.5000000000000000    0.0000000000000000 Nb
   0.0333650000000000    0.3555840000000000    0.7435260000000000 O
   0.9666350000000000    0.6444160000000000    0.2564740000000000 O
   0.5333650000000000    0.6444160000000000    0.7564740000000000 O
   0.4666350000000000    0.3555840000000000    0.2435260000000000 O
   0.6965430000000000    0.8440740000000000    0.9489180000000000 O
   0.3034570000000000    0.1559260000000000    0.0510820000000000 O
   0.1965430000000000    0.1559260000000000    0.5510820000000000 O
   0.8034570000000000    0.8440740000000000    0.4489180000000000 O
   0.2091330000000000    0.7486200000000000    0.9457410000000001 O
   0.7908670000000000    0.2513800000000000    0.0542590000000000 O
   0.7091330000000000    0.2513800000000000    0.5542589999999999 O
   0.2908670000000000    0.7486200000000000    0.4457410000000000 O
