Cd4 Ag8 Ge4 S16
1.0
   6.6879980000000003    0.0000000000000000    0.0000000000000000
   0.0000000000000000    8.1529690000000006    0.0000000000000000
   0.0000000000000000    0.0000000000000000   13.9556310000000003
Cd Ag Ge S
4 8 4 16
direct
   0.7951160000000000    0.0133040000000000    0.1577860000000000 Cd
   0.2951160000000000    0.9866960000000000    0.8422140000000000 Cd
   0.2951160000000000    0.5133040000000000    0.3422140000000000 Cd
   0.7951160000000000    0.4866960000000000    0.6577860000000000 Cd
   0.2835630000000000    0.2616500000000000    0.0754490000000000 Ag
   0.7835630000000000    0.7383500000000000    0.9245510000000000 Ag
   0.7835630000000000    0.7616500000000000    0.4245510000000000 Ag
   0.2835630000000000    0.2383500000000000    0.5754490000000000 Ag
   0.8021660000000000    0.5007910000000000    0.1589520000000000 Ag
   0.3021660000000000    0.4992090000000000    0.8410480000000000 Ag
   0.3021660000000000    0.0007910000000000    0.3410480000000000 Ag
   0.8021660000000000    0.9992090000000000    0.6589520000000000 Ag
   0.7885410000000000    0.2409580000000000    0.9092510000000000 Ge
   0.2885410000000000    0.7590420000000000    0.0907490000000000 Ge
   0.2885410000000000    0.7409580000000000    0.5907490000000000 Ge
   0.7885410000000000    0.2590420000000000    0.4092510000000000 Ge
   0.6707450000000000    0.2582170000000000    0.0602110000000000 S
   0.1707450000000000    0.7417830000000000    0.9397890000000000 S
   0.1707450000000000    0.7582170000000000    0.4397890000000000 S
   0.6707450000000000    0.2417830000000000    0.5602110000000000 S
   0.6789750000000000    0.0117250000000000    0.8356720000000000 S
   0.1789750000000000    0.9882750000000000    0.1643280000000000 S
   0.1789750000000000    0.5117250000000000    0.6643280000000000 S
   0.6789750000000000    0.4882750000000000    0.3356720000000000 S
   0.1254480000000000    0.2443270000000000    0.9074320000000000 S
   0.6254480000000000    0.7556730000000000    0.0925680000000000 S
   0.6254480000000000    0.7443270000000000    0.5925680000000000 S
   0.1254480000000000    0.2556730000000000    0.4074320000000000 S
   0.6813360000000001    0.4714130000000000    0.8347530000000000 S
   0.1813360000000000    0.5285870000000000    0.1652470000000000 S
   0.1813360000000000    0.9714130000000000    0.6652470000000000 S
   0.6813360000000001    0.0285870000000000    0.3347530000000000 S
