Rb2 Sc2 W4 O16
1.0
   5.1294610000000000    5.4586259999999998    0.0000000000000000
  -5.1294610000000000    5.4586259999999998    0.0000000000000000
   0.0000000000000000    4.7861490000000000    5.6303929999999998
Rb Sc W O
2 2 4 16
direct
   0.1987900000000000    0.8012100000000000    0.7500000000000000 Rb
   0.8012100000000000    0.1987900000000000    0.2500000000000000 Rb
   0.7804000000000000    0.2196000000000000    0.7500000000000000 Sc
   0.2196000000000000    0.7804000000000000    0.2500000000000000 Sc
   0.7032890000000001    0.6904850000000000    0.7911850000000000 W
   0.2967110000000000    0.3095150000000000    0.2088150000000000 W
   0.3095150000000000    0.2967110000000000    0.7088150000000000 W
   0.6904850000000000    0.7032890000000001    0.2911850000000000 W
   0.6189980000000000    0.7566230000000000    0.5624300000000000 O
   0.3810020000000000    0.2433770000000000    0.4375700000000000 O
   0.2433770000000000    0.3810020000000000    0.9375700000000000 O
   0.7566230000000000    0.6189980000000000    0.0624300000000000 O
   0.3471350000000000    0.0427470000000000    0.8929880000000000 O
   0.6528650000000000    0.9572530000000000    0.1070120000000000 O
   0.9572530000000000    0.6528650000000000    0.6070120000000000 O
   0.0427470000000000    0.3471350000000000    0.3929880000000000 O
   0.6029000000000000    0.3728680000000000    0.9520870000000000 O
   0.3971000000000000    0.6271320000000000    0.0479130000000000 O
   0.6271320000000000    0.3971000000000000    0.5479130000000000 O
   0.3728680000000000    0.6029000000000000    0.4520870000000000 O
   0.7676770000000001    0.9638500000000000    0.7037650000000000 O
   0.2323230000000000    0.0361500000000000    0.2962350000000000 O
   0.0361500000000000    0.2323230000000000    0.7962350000000000 O
   0.9638500000000000    0.7676770000000001    0.2037650000000000 O
