Cs12 Si4 O14
1.0
   9.6444270000000003    0.0000000000000000    0.0000000000000000
   0.0000000000000000    7.2896840000000003    0.0000000000000000
   0.0000000000000000    7.2877669999999997    9.8251349999999995
Cs Si O
12 4 14
direct
   0.3558550000000000    0.5209160000000000    0.5969000000000000 Cs
   0.1441450000000000    0.5209160000000000    0.0969000000000000 Cs
   0.6441450000000000    0.4790840000000000    0.4031000000000000 Cs
   0.9727760000000000    0.7058150000000000    0.5448340000000000 Cs
   0.4727760000000000    0.2941850000000000    0.9551660000000000 Cs
   0.0272240000000000    0.2941850000000000    0.4551660000000000 Cs
   0.5272240000000000    0.7058150000000000    0.0448340000000000 Cs
   0.2759990000000000    0.8887820000000000    0.7272149999999999 Cs
   0.7759990000000000    0.1112180000000000    0.7727850000000001 Cs
   0.7240010000000000    0.1112180000000000    0.2727850000000000 Cs
   0.2240010000000000    0.8887820000000000    0.2272150000000000 Cs
   0.8558550000000000    0.4790840000000000    0.9031000000000000 Cs
   0.6284720000000000    0.8414800000000000    0.6178100000000000 Si
   0.8715280000000000    0.8414800000000000    0.1178100000000000 Si
   0.3715280000000000    0.1585200000000000    0.3821900000000000 Si
   0.1284720000000000    0.1585200000000000    0.8821900000000000 Si
   0.2686260000000000    0.9953140000000000    0.9377760000000001 O
   0.0000000000000000    0.0000000000000000    0.0000000000000000 O
   0.5000000000000000    0.0000000000000000    0.5000000000000000 O
   0.9244690000000000    0.7772800000000000    0.2652850000000000 O
   0.7686260000000000    0.0046860000000000    0.5622239999999999 O
   0.7313740000000000    0.0046860000000000    0.0622240000000000 O
   0.2313740000000000    0.9953140000000000    0.4377760000000000 O
   0.6539900000000000    0.6104600000000000    0.6244550000000000 O
   0.1539900000000000    0.3895400000000000    0.8755450000000000 O
   0.3460100000000000    0.3895400000000000    0.3755450000000000 O
   0.8460100000000000    0.6104600000000000    0.1244550000000000 O
   0.5755310000000000    0.7772800000000000    0.7652850000000000 O
   0.0755310000000000    0.2227200000000000    0.7347150000000000 O
   0.4244690000000000    0.2227200000000000    0.2347150000000000 O
