Li12 Au4 O12
1.0
   9.2574349999999992    0.0000000000000000    0.0000000000000000
   0.0000000000000000    9.2574349999999992    0.0000000000000000
   0.0000000000000000    0.0000000000000000    3.6410730000000000
Li Au O
12 4 12
direct
   0.1414870000000000    0.5924380000000000    0.0000000000000000 Li
   0.0924380000000000    0.3585130000000000    0.5000000000000000 Li
   0.9075620000000000    0.6414870000000000    0.5000000000000000 Li
   0.8585130000000000    0.4075620000000000    0.0000000000000000 Li
   0.3585130000000000    0.0924380000000000    0.5000000000000000 Li
   0.6414870000000000    0.9075620000000000    0.5000000000000000 Li
   0.5924380000000000    0.1414870000000000    0.0000000000000000 Li
   0.4075620000000000    0.8585130000000000    0.0000000000000000 Li
   0.1665450000000000    0.1665450000000000    0.0000000000000000 Li
   0.6665450000000001    0.3334550000000000    0.5000000000000000 Li
   0.3334550000000000    0.6665450000000001    0.5000000000000000 Li
   0.8334549999999999    0.8334549999999999    0.0000000000000000 Li
   0.6181780000000000    0.6181780000000000    0.0000000000000000 Au
   0.8818220000000000    0.1181780000000000    0.5000000000000000 Au
   0.3818220000000000    0.3818220000000000    0.0000000000000000 Au
   0.1181780000000000    0.8818220000000000    0.5000000000000000 Au
   0.1067850000000000    0.1067850000000000    0.5000000000000000 O
   0.8932150000000000    0.8932150000000000    0.5000000000000000 O
   0.3932150000000000    0.6067850000000000    0.0000000000000000 O
   0.6067850000000000    0.3932150000000000    0.0000000000000000 O
   0.3809420000000000    0.1633440000000000    0.0000000000000000 O
   0.6633440000000000    0.1190580000000000    0.5000000000000000 O
   0.3366560000000000    0.8809420000000000    0.5000000000000000 O
   0.6190580000000000    0.8366560000000000    0.0000000000000000 O
   0.1190580000000000    0.6633440000000000    0.5000000000000000 O
   0.8809420000000000    0.3366560000000000    0.5000000000000000 O
   0.1633440000000000    0.3809420000000000    0.0000000000000000 O
   0.8366560000000000    0.6190580000000000    0.0000000000000000 O
