Sr4 Mg2 Ge4 O14
1.0
   8.2641650000000002    0.0000000000000000    0.0000000000000000
   0.0000000000000000    8.2641650000000002    0.0000000000000000
   0.0000000000000000    0.0000000000000000    5.3727879999999999
Sr Mg Ge O
4 2 4 14
direct
   0.3348680000000000    0.8348680000000001    0.4918650000000000 Sr
   0.6651319999999999    0.1651320000000000    0.4918650000000000 Sr
   0.1651320000000000    0.3348680000000000    0.5081350000000000 Sr
   0.8348680000000001    0.6651319999999999    0.5081350000000000 Sr
   0.0000000000000000    0.0000000000000000    0.0000000000000000 Mg
   0.5000000000000000    0.5000000000000000    0.0000000000000000 Mg
   0.1432630000000000    0.6432630000000000    0.0504630000000000 Ge
   0.8567370000000000    0.3567370000000000    0.0504630000000000 Ge
   0.3567370000000000    0.1432630000000000    0.9495370000000000 Ge
   0.6432630000000000    0.8567370000000000    0.9495370000000000 Ge
   0.0000000000000000    0.5000000000000000    0.1843280000000000 O
   0.0823610000000000    0.8220040000000000    0.2066720000000000 O
   0.3220040000000000    0.5823610000000000    0.2066720000000000 O
   0.6779960000000000    0.4176390000000000    0.2066720000000000 O
   0.9176390000000000    0.1779960000000000    0.2066720000000000 O
   0.3610710000000000    0.1389290000000000    0.2738090000000000 O
   0.6389290000000000    0.8610710000000000    0.2738090000000000 O
   0.1389290000000000    0.6389290000000000    0.7261910000000000 O
   0.8610710000000000    0.3610710000000000    0.7261910000000000 O
   0.1779960000000000    0.0823610000000000    0.7933280000000000 O
   0.4176390000000000    0.3220040000000000    0.7933280000000000 O
   0.5823610000000000    0.6779960000000000    0.7933280000000000 O
   0.8220040000000000    0.9176390000000000    0.7933280000000000 O
   0.5000000000000000    0.0000000000000000    0.8156720000000000 O
