Na10 Li6 Ti4 S16
1.0
   4.8548419999999997    8.8534720000000000    0.0000000000000000
  -4.8548419999999997    8.8534720000000000    0.0000000000000000
   0.0000000000000000    8.3661019999999997    8.8478010000000005
Na Li Ti S
10 6 4 16
direct
   0.4137820000000000    0.3867280000000000    0.7344580000000001 Na
   0.0081450000000000    0.9918550000000000    0.2500000000000000 Na
   0.3923870000000000    0.9004940000000000    0.4840250000000000 Na
   0.6076130000000000    0.0995060000000000    0.5159750000000000 Na
   0.5862180000000000    0.6132720000000000    0.2655420000000000 Na
   0.9918550000000000    0.0081450000000000    0.7500000000000000 Na
   0.9004940000000000    0.3923870000000000    0.9840250000000000 Na
   0.0995060000000000    0.6076130000000000    0.0159750000000000 Na
   0.3867280000000000    0.4137820000000000    0.2344580000000000 Na
   0.6132720000000000    0.5862180000000000    0.7655419999999999 Na
   0.8060900000000000    0.8085190000000000    0.7581580000000000 Li
   0.1914810000000000    0.1939100000000000    0.7418420000000000 Li
   0.8085190000000000    0.8060900000000000    0.2581580000000000 Li
   0.5000000000000000    0.0000000000000000    0.0000000000000000 Li
   0.0000000000000000    0.5000000000000000    0.5000000000000000 Li
   0.1939100000000000    0.1914810000000000    0.2418420000000000 Li
   0.8485350000000000    0.3188430000000000    0.4677450000000000 Ti
   0.1514650000000000    0.6811570000000000    0.5322550000000000 Ti
   0.3188430000000000    0.8485350000000000    0.9677450000000000 Ti
   0.6811570000000000    0.1514650000000000    0.0322550000000000 Ti
   0.4252780000000000    0.3165420000000000    0.0081270000000000 S
   0.1180710000000000    0.7103360000000000    0.1766750000000000 S
   0.5747220000000000    0.6834580000000000    0.9918730000000000 S
   0.7581780000000000    0.8844480000000000    0.0496750000000000 S
   0.1050810000000000    0.6663820000000000    0.7478160000000000 S
   0.6834580000000000    0.5747220000000000    0.4918730000000000 S
   0.2418220000000000    0.1155520000000000    0.9503250000000000 S
   0.2896640000000000    0.8819290000000000    0.3233250000000000 S
   0.3336180000000000    0.8949190000000000    0.7521840000000000 S
   0.6663820000000000    0.1050810000000000    0.2478160000000000 S
   0.8844480000000000    0.7581780000000000    0.5496750000000000 S
   0.1155520000000000    0.2418220000000000    0.4503250000000000 S
   0.8819290000000000    0.2896640000000000    0.8233250000000000 S
   0.7103360000000000    0.1180710000000000    0.6766750000000000 S
   0.3165420000000000    0.4252780000000000    0.5081270000000000 S
   0.8949190000000000    0.3336180000000000    0.2521840000000000 S
