Ba1 Be2 P2 O8
1.0
   2.5546009999999999   -4.4246990000000004    0.0000000000000000
   2.5546009999999999    4.4246990000000004    0.0000000000000000
   0.0000000000000000    0.0000000000000000    7.5002389999999997
Ba Be P O
1 2 2 8
direct
   0.0000000000000000    0.0000000000000000    0.0000000000000000 Ba
   0.6666670000000000    0.3333330000000000    0.2975190000000000 Be
   0.3333330000000000    0.6666670000000000    0.7024810000000000 Be
   0.3333330000000000    0.6666670000000000    0.2920270000000000 P
   0.6666670000000000    0.3333330000000000    0.7079730000000000 P
   0.6666670000000000    0.3333330000000000    0.5076230000000000 O
   0.3333330000000000    0.6666670000000000    0.4923770000000000 O
   0.4957970000000000    0.9915950000000000    0.2116000000000000 O
   0.0084050000000000    0.5042030000000000    0.2116000000000000 O
   0.4957970000000000    0.5042030000000000    0.2116000000000000 O
   0.5042030000000000    0.0084050000000000    0.7884000000000000 O
   0.9915950000000000    0.4957970000000000    0.7884000000000000 O
   0.5042030000000000    0.4957970000000000    0.7884000000000000 O
