Rb2 Te1 Se4
1.0
   4.4109689999999997    5.6390680000000000    0.0000000000000000
  -4.4109689999999997    5.6390680000000000    0.0000000000000000
   0.0000000000000000    2.3666469999999999    4.8667350000000003
Rb Te Se
2 1 4
direct
   0.3206410000000000    0.3206410000000000    0.3440380000000000 Rb
   0.6793590000000000    0.6793590000000000    0.6559620000000000 Rb
   0.0000000000000000    0.0000000000000000    0.0000000000000000 Te
   0.8479670000000000    0.3122130000000000    0.2630950000000000 Se
   0.3122130000000000    0.8479670000000000    0.2630950000000000 Se
   0.1520330000000000    0.6877870000000000    0.7369050000000000 Se
   0.6877870000000000    0.1520330000000000    0.7369050000000000 Se
