Sr4 V6 Bi2 O22
1.0
   7.0946509999999998    0.0000000000000000    0.0000000000000000
  -0.3604740000000000    7.1206500000000004    0.0000000000000000
  -1.0729720000000000   -1.7212430000000001   10.1784929999999996
Sr V Bi O
4 6 2 22
direct
   0.6499190000000000    0.2514310000000000    0.9793790000000000 Sr
   0.3500810000000000    0.7485690000000000    0.0206210000000000 Sr
   0.3404310000000000    0.3883780000000000    0.6368170000000000 Sr
   0.6595690000000000    0.6116220000000000    0.3631830000000000 Sr
   0.6405290000000000    0.1112450000000000    0.3354810000000000 V
   0.3594710000000000    0.8887550000000000    0.6645190000000000 V
   0.1595490000000000    0.2356670000000000    0.9619000000000000 V
   0.8404509999999999    0.7643330000000000    0.0381000000000000 V
   0.1328360000000000    0.4274390000000000    0.2647590000000000 V
   0.8671640000000000    0.5725610000000000    0.7352410000000000 V
   0.8492700000000000    0.0714490000000000    0.6404100000000000 Bi
   0.1507300000000000    0.9285510000000000    0.3595900000000000 Bi
   0.9912600000000000    0.3943850000000000    0.6547320000000000 O
   0.0087400000000000    0.6056150000000000    0.3452680000000000 O
   0.0284740000000000    0.3401580000000000    0.0956620000000000 O
   0.9715260000000000    0.6598420000000000    0.9043380000000000 O
   0.4192990000000000    0.7467160000000000    0.5256700000000000 O
   0.5807010000000000    0.2532840000000000    0.4743300000000000 O
   0.6999680000000000    0.2621580000000000    0.2322290000000000 O
   0.3000320000000000    0.7378420000000000    0.7677710000000000 O
   0.9705620000000000    0.1211680000000000    0.8507930000000000 O
   0.0294380000000000    0.8788319999999999    0.1492070000000000 O
   0.6812120000000000    0.9134170000000000    0.9882110000000000 O
   0.3187880000000000    0.0865830000000000    0.0117890000000000 O
   0.5424600000000001    0.0596080000000000    0.7348560000000000 O
   0.4575400000000000    0.9403920000000000    0.2651440000000000 O
   0.1673860000000000    0.0258980000000000    0.6046110000000000 O
   0.8326140000000000    0.9741020000000000    0.3953890000000000 O
   0.2998930000000000    0.3973950000000000    0.9024300000000000 O
   0.7001070000000000    0.6026049999999999    0.0975700000000000 O
   0.6614139999999999    0.4607620000000000    0.7615430000000000 O
   0.3385860000000000    0.5392380000000000    0.2384570000000000 O
   0.8258540000000000    0.7437400000000000    0.6349080000000000 O
   0.1741460000000000    0.2562600000000000    0.3650920000000000 O
