Na1 In1 S2
1.0
   6.7938450000000001   -1.9290540000000000    0.0000000000000000
   6.7938450000000001    1.9290540000000000    0.0000000000000000
   6.2461070000000003    0.0000000000000000    3.2960170000000000
Na In S
1 1 2
direct
   0.5000000000000000    0.5000000000000000    0.5000000000000000 Na
   0.0000000000000000    0.0000000000000000    0.0000000000000000 In
   0.7400330000000001    0.7400330000000001    0.7400330000000001 S
   0.2599670000000000    0.2599670000000000    0.2599670000000000 S
