K4 Hg6 Ge4 Se16
1.0
   4.5341790000000000   -5.1252839999999997    0.0000000000000000
   4.5341790000000000    5.1252839999999997    0.0000000000000000
   0.0000000000000000    0.0000000000000000   20.4674920000000000
K Hg Ge Se
4 6 4 16
direct
   0.8823870000000000    0.4724430000000000    0.3821190000000000 K
   0.4724430000000000    0.8823870000000000    0.6178810000000000 K
   0.3823870000000000    0.9724429999999999    0.1178810000000000 K
   0.9724429999999999    0.3823870000000000    0.8821190000000000 K
   0.8325200000000000    0.9249400000000000    0.2446760000000000 Hg
   0.9249400000000000    0.8325200000000000    0.7553240000000000 Hg
   0.3325200000000000    0.4249400000000000    0.2553240000000000 Hg
   0.4249400000000000    0.3325200000000000    0.7446760000000000 Hg
   0.5400260000000000    0.5400260000000000    0.0000000000000000 Hg
   0.0400260000000000    0.0400260000000000    0.5000000000000000 Hg
   0.8961479999999999    0.4741160000000000    0.1355660000000000 Ge
   0.4741160000000000    0.8961479999999999    0.8644340000000000 Ge
   0.9741160000000000    0.3961480000000000    0.6355660000000000 Ge
   0.3961480000000000    0.9741160000000000    0.3644340000000000 Ge
   0.3041510000000000    0.7716420000000001    0.9631020000000000 Se
   0.7716420000000001    0.3041510000000000    0.0368980000000000 Se
   0.8298020000000000    0.2440760000000000    0.7296589999999999 Se
   0.2440760000000000    0.8298020000000000    0.2703410000000000 Se
   0.3298020000000000    0.7440760000000000    0.7703410000000001 Se
   0.7440760000000000    0.3298010000000000    0.2296590000000000 Se
   0.4283050000000000    0.2389180000000000    0.8682500000000000 Se
   0.2389180000000000    0.4283050000000000    0.1317500000000000 Se
   0.9283050000000000    0.7389180000000000    0.6317500000000000 Se
   0.7389180000000000    0.9283050000000000    0.3682500000000000 Se
   0.3147240000000000    0.3503330000000000    0.6234120000000000 Se
   0.3503330000000000    0.3147240000000000    0.3765880000000000 Se
   0.8147240000000000    0.8503330000000000    0.8765880000000000 Se
   0.8503330000000000    0.8147240000000000    0.1234120000000000 Se
   0.8041509999999999    0.2716420000000000    0.5368980000000000 Se
   0.2716420000000000    0.8041509999999999    0.4631020000000000 Se
