Ba2 Cu4 O4
1.0
  -2.8987419999999999    2.8987419999999999    5.0746270000000004
   2.8987419999999999   -2.8987419999999999    5.0746270000000004
   2.8987419999999999    2.8987419999999999   -5.0746270000000004
Ba Cu O
2 4 4
direct
   0.0000000000000000    0.0000000000000000    0.0000000000000000 Ba
   0.7500000000000000    0.2500000000000000    0.5000000000000000 Ba
   0.3750000000000000    0.6250000000000000    0.2500000000000000 Cu
   0.8750000000000000    0.6250000000000000    0.2500000000000000 Cu
   0.3750000000000000    0.1250000000000000    0.7500000000000000 Cu
   0.3750000000000000    0.6250000000000000    0.7500000000000000 Cu
   0.7379220000000000    0.7379220000000000    0.0000000000000000 O
   0.4879220000000000    0.9879220000000000    0.5000000000000000 O
   0.0120780000000000    0.5120780000000000    0.5000000000000000 O
   0.2620780000000000    0.2620780000000000    0.0000000000000000 O
