In4 Pt4 O14
1.0
   0.0000000000000000    5.0651659999999996    5.0651659999999996
   5.0651659999999996    0.0000000000000000    5.0651659999999996
   5.0651659999999996    5.0651659999999996    0.0000000000000000
In Pt O
4 4 14
direct
   0.1250000000000000    0.1250000000000000    0.1250000000000000 In
   0.6250000000000000    0.1250000000000000    0.1250000000000000 In
   0.1250000000000000    0.6250000000000000    0.1250000000000000 In
   0.1250000000000000    0.1250000000000000    0.6250000000000000 In
   0.6250000000000000    0.6250000000000000    0.1250000000000000 Pt
   0.6250000000000000    0.1250000000000000    0.6250000000000000 Pt
   0.1250000000000000    0.6250000000000000    0.6250000000000000 Pt
   0.6250000000000000    0.6250000000000000    0.6250000000000000 Pt
   0.2500000000000000    0.2500000000000000    0.2500000000000000 O
   0.7165859999999999    0.2834140000000000    0.2834140000000000 O
   0.7165859999999999    0.2834140000000000    0.7165859999999999 O
   0.2834140000000000    0.7165859999999999    0.2834140000000000 O
   0.7165859999999999    0.7165859999999999    0.2834140000000000 O
   0.2834140000000000    0.2834140000000000    0.7165859999999999 O
   0.9665859999999999    0.5334140000000001    0.5334140000000001 O
   0.2834140000000000    0.7165859999999999    0.7165859999999999 O
   0.9665859999999999    0.9665859999999999    0.5334140000000001 O
   0.5334140000000001    0.9665859999999999    0.5334140000000001 O
   0.5334140000000001    0.5334140000000001    0.9665859999999999 O
   0.9665859999999999    0.5334140000000001    0.9665859999999999 O
   0.5334140000000001    0.9665859999999999    0.9665859999999999 O
   0.0000000000000000    0.0000000000000000    0.0000000000000000 O
