Sn1 Se1
1.0
   0.0000000000000000    3.0326900000000001    3.0326900000000001
   3.0326900000000001    0.0000000000000000    3.0326900000000001
   3.0326900000000001    3.0326900000000001    0.0000000000000000
Sn Se
1 1
direct
   0.0000000000000000    0.0000000000000000    0.0000000000000000 Sn
   0.5000000000000000    0.5000000000000000    0.5000000000000000 Se
