Y4 Cr6 O24
1.0
   0.0000000000000000    5.1063570000000000   15.3047570000000004
   3.1346829999999999    0.0000000000000000   15.3047570000000004
   3.1346829999999999    5.1063570000000000    0.0000000000000000
Y Cr O
4 6 24
direct
   0.6702060000000000    0.6702060000000000    0.3297940000000000 Y
   0.3297940000000000    0.3297940000000000    0.6702060000000000 Y
   0.9202060000000000    0.9202060000000000    0.5797940000000000 Y
   0.5797940000000000    0.5797940000000000    0.9202060000000000 Y
   0.7500000000000000    0.7500000000000000    0.7500000000000000 Cr
   0.4156220000000000    0.4156220000000000    0.0843780000000000 Cr
   0.0843780000000000    0.0843780000000000    0.4156220000000000 Cr
   0.1656220000000000    0.1656220000000000    0.8343780000000000 Cr
   0.8343780000000000    0.8343780000000000    0.1656220000000000 Cr
   0.5000000000000000    0.5000000000000000    0.5000000000000000 Cr
   0.1184530000000000    0.2741450000000000    0.0542680000000000 O
   0.7827660000000000    0.9458870000000000    0.4019090000000000 O
   0.4748350000000000    0.5894490000000000    0.7126790000000000 O
   0.6605510000000000    0.7751650000000000    0.0269640000000000 O
   0.3041130000000000    0.4672340000000000    0.3805620000000000 O
   0.9758550000000000    0.1315470000000000    0.6968670000000000 O
   0.5373210000000000    0.0269640000000000    0.7751650000000000 O
   0.1957320000000000    0.6968670000000000    0.1315470000000000 O
   0.8480910000000000    0.3805620000000000    0.4672340000000000 O
   0.8694380000000000    0.4019090000000000    0.9458870000000000 O
   0.5531330000000000    0.0542680000000000    0.2741450000000000 O
   0.2230360000000000    0.7126790000000000    0.5894490000000000 O
   0.2741450000000000    0.1184530000000000    0.5531330000000000 O
   0.9458870000000000    0.7827660000000000    0.8694380000000000 O
   0.5894490000000000    0.4748350000000000    0.2230360000000000 O
   0.7751650000000000    0.6605510000000000    0.5373210000000000 O
   0.4672340000000000    0.3041130000000000    0.8480910000000000 O
   0.1315470000000000    0.9758550000000000    0.1957320000000000 O
   0.0269640000000000    0.5373210000000000    0.6605510000000000 O
   0.6968670000000000    0.1957320000000000    0.9758550000000000 O
   0.3805620000000000    0.8480910000000000    0.3041130000000000 O
   0.4019090000000000    0.8694380000000000    0.7827660000000000 O
   0.0542680000000000    0.5531330000000000    0.1184530000000000 O
   0.7126790000000000    0.2230360000000000    0.4748350000000000 O
