Ca1 Ti8 S16
1.0
   3.4202189999999999   -5.9239920000000001    0.0000000000000000
   3.4202189999999999    5.9239920000000001    0.0000000000000000
   0.0000000000000000    0.0000000000000000   13.3771000000000004
Ca Ti S
1 8 16
direct
   0.0000000000000000    0.0000000000000000    0.0000000000000000 Ca
   0.5022510000000000    0.4977490000000000    0.7427600000000000 Ti
   0.4977490000000000    0.5022510000000000    0.2572400000000000 Ti
   0.5022510000000000    0.0045010000000000    0.7427600000000000 Ti
   0.4977490000000000    0.9954990000000000    0.2572400000000000 Ti
   0.9954990000000000    0.4977490000000000    0.7427600000000000 Ti
   0.0045010000000000    0.5022510000000000    0.2572400000000000 Ti
   0.0000000000000000    0.0000000000000000    0.7377089999999999 Ti
   0.0000000000000000    0.0000000000000000    0.2622910000000000 Ti
   0.8330530000000000    0.6661070000000000    0.1486500000000000 S
   0.8326210000000001    0.6652430000000000    0.6356870000000000 S
   0.8330530000000000    0.1669470000000000    0.1486500000000000 S
   0.8326210000000001    0.1673790000000000    0.6356870000000000 S
   0.3333330000000000    0.6666670000000000    0.1479380000000000 S
   0.3333330000000000    0.6666670000000000    0.6393860000000000 S
   0.3338930000000000    0.1669470000000000    0.1486500000000000 S
   0.3347570000000000    0.1673790000000000    0.6356870000000000 S
   0.6661070000000000    0.8330530000000000    0.8513500000000001 S
   0.6652430000000000    0.8326210000000001    0.3643130000000000 S
   0.6666670000000000    0.3333330000000000    0.8520620000000000 S
   0.6666670000000000    0.3333330000000000    0.3606140000000000 S
   0.1669470000000000    0.8330530000000000    0.8513500000000001 S
   0.1673790000000000    0.8326210000000001    0.3643130000000000 S
   0.1669470000000000    0.3338930000000000    0.8513500000000001 S
   0.1673790000000000    0.3347570000000000    0.3643130000000000 S
