Pd4 Se8
1.0
   5.7944180000000003    0.0000000000000000    0.0000000000000000
   0.0000000000000000    5.9454219999999998    0.0000000000000000
   0.0000000000000000    0.0000000000000000    8.5850609999999996
Pd Se
4 8
direct
   0.5000000000000000    0.0000000000000000    0.5000000000000000 Pd
   0.0000000000000000    0.5000000000000000    0.5000000000000000 Pd
   0.5000000000000000    0.5000000000000000    0.0000000000000000 Pd
   0.0000000000000000    0.0000000000000000    0.0000000000000000 Pd
   0.6113000000000000    0.1193560000000000    0.0858910000000000 Se
   0.1113000000000000    0.3806440000000000    0.9141089999999999 Se
   0.3887000000000000    0.6193560000000000    0.4141090000000000 Se
   0.8887000000000000    0.8806440000000000    0.5858910000000001 Se
   0.1113000000000000    0.1193560000000000    0.4141090000000000 Se
   0.6113000000000000    0.3806440000000000    0.5858910000000001 Se
   0.8887000000000000    0.6193560000000000    0.0858910000000000 Se
   0.3887000000000000    0.8806440000000000    0.9141089999999999 Se
