Cs2 Pt4 Se6
1.0
   7.6056249999999999   -3.7838120000000002    0.0000000000000000
   7.6056249999999999    3.7838120000000002    0.0000000000000000
   5.7231719999999999    0.0000000000000000    6.2775850000000002
Cs Pt Se
2 4 6
direct
   0.1995880000000000    0.1995880000000000    0.1995880000000000 Cs
   0.8004120000000000    0.8004120000000000    0.8004120000000000 Cs
   0.0000000000000000    0.5000000000000000    0.5000000000000000 Pt
   0.5000000000000000    0.0000000000000000    0.5000000000000000 Pt
   0.0000000000000000    0.0000000000000000    0.0000000000000000 Pt
   0.5000000000000000    0.5000000000000000    0.0000000000000000 Pt
   0.2271130000000000    0.2271130000000000    0.7137100000000000 Se
   0.7728870000000000    0.7728870000000000    0.2862900000000000 Se
   0.2271130000000000    0.7137100000000000    0.2271130000000000 Se
   0.7137100000000000    0.2271130000000000    0.2271130000000000 Se
   0.2862900000000000    0.7728870000000000    0.7728870000000000 Se
   0.7728870000000000    0.2862900000000000    0.7728870000000000 Se
