Nb8 Co2 Se16
1.0
   3.4971179999999999   -6.0571869999999999    0.0000000000000000
   3.4971179999999999    6.0571869999999999    0.0000000000000000
   0.0000000000000000    0.0000000000000000   12.4165720000000004
Nb Co Se
8 2 16
direct
   0.0000000000000000    0.0000000000000000    0.2500000000000000 Nb
   0.0000000000000000    0.0000000000000000    0.7500000000000000 Nb
   0.5080240000000000    0.0160480000000000    0.2500000000000000 Nb
   0.9839520000000000    0.4919760000000000    0.2500000000000000 Nb
   0.5080240000000000    0.4919760000000000    0.2500000000000000 Nb
   0.4919760000000000    0.9839520000000000    0.7500000000000000 Nb
   0.0160480000000000    0.5080240000000000    0.7500000000000000 Nb
   0.4919760000000000    0.5080240000000000    0.7500000000000000 Nb
   0.0000000000000000    0.0000000000000000    0.5000000000000000 Co
   0.0000000000000000    0.0000000000000000    0.0000000000000000 Co
   0.3333330000000000    0.6666670000000000    0.8890940000000001 Se
   0.6666670000000000    0.3333330000000000    0.1109060000000000 Se
   0.6666670000000000    0.3333330000000000    0.3890940000000000 Se
   0.3333330000000000    0.6666670000000000    0.6109059999999999 Se
   0.1663650000000000    0.8336350000000000    0.3824930000000000 Se
   0.1663650000000000    0.3327300000000000    0.3824930000000000 Se
   0.6672700000000000    0.8336350000000000    0.3824930000000000 Se
   0.8336350000000000    0.1663650000000000    0.6175070000000000 Se
   0.8336350000000000    0.6672700000000000    0.6175070000000000 Se
   0.3327300000000000    0.1663650000000000    0.6175070000000000 Se
   0.8336350000000000    0.1663650000000000    0.8824930000000000 Se
   0.8336350000000000    0.6672700000000000    0.8824930000000000 Se
   0.3327300000000000    0.1663650000000000    0.8824930000000000 Se
   0.1663650000000000    0.8336350000000000    0.1175070000000000 Se
   0.1663650000000000    0.3327300000000000    0.1175070000000000 Se
   0.6672700000000000    0.8336350000000000    0.1175070000000000 Se
