Na1 Y1 Se2
1.0
   7.1516960000000003   -2.0714269999999999    0.0000000000000000
   7.1516960000000003    2.0714269999999999    0.0000000000000000
   6.5517260000000004    0.0000000000000000    3.5372960000000000
Na Y Se
1 1 2
direct
   0.0000000000000000    0.0000000000000000    0.0000000000000000 Na
   0.5000000000000000    0.5000000000000000    0.5000000000000000 Y
   0.7569540000000000    0.7569540000000000    0.7569540000000000 Se
   0.2430460000000000    0.2430460000000000    0.2430460000000000 Se
