Ba2 Ti2 Se6
1.0
   3.5613959999999998   -6.1685189999999999    0.0000000000000000
   3.5613959999999998    6.1685189999999999    0.0000000000000000
   0.0000000000000000    0.0000000000000000    6.0665129999999996
Ba Ti Se
2 2 6
direct
   0.3333330000000000    0.6666670000000000    0.7500000000000000 Ba
   0.6666670000000000    0.3333330000000000    0.2500000000000000 Ba
   0.0000000000000000    0.0000000000000000    0.5000000000000000 Ti
   0.0000000000000000    0.0000000000000000    0.0000000000000000 Ti
   0.1685060000000000    0.8314940000000000    0.2500000000000000 Se
   0.1685060000000000    0.3370130000000000    0.2500000000000000 Se
   0.6629870000000000    0.8314940000000000    0.2500000000000000 Se
   0.8314940000000000    0.1685060000000000    0.7500000000000000 Se
   0.8314940000000000    0.6629870000000000    0.7500000000000000 Se
   0.3370130000000000    0.1685060000000000    0.7500000000000000 Se
