K6 Ge2 S6
1.0
   6.2886230000000003    4.3982549999999998    0.0000000000000000
  -6.2886230000000003    4.3982549999999998    0.0000000000000000
   0.0000000000000000    3.7365230000000000    7.4392630000000004
K Ge S
6 2 6
direct
   0.7838670000000000    0.7838670000000000    0.6855850000000000 K
   0.2161330000000000    0.2161330000000000    0.3144150000000000 K
   0.5000000000000000    0.0000000000000000    0.0000000000000000 K
   0.0000000000000000    0.5000000000000000    0.0000000000000000 K
   0.3318590000000000    0.6681410000000000    0.5000000000000000 K
   0.6681410000000000    0.3318590000000000    0.5000000000000000 K
   0.1183860000000000    0.1183860000000000    0.8435960000000000 Ge
   0.8816140000000000    0.8816140000000000    0.1564040000000000 Ge
   0.0495750000000000    0.7572310000000000    0.2997730000000000 S
   0.2427690000000000    0.9504250000000000    0.7002270000000000 S
   0.3684360000000000    0.3684360000000000    0.8570830000000000 S
   0.6315640000000000    0.6315640000000000    0.1429170000000000 S
   0.9504250000000000    0.2427690000000000    0.7002270000000000 S
   0.7572310000000000    0.0495750000000000    0.2997730000000000 S
