K2 Au2 S4 O16
1.0
   3.7829560000000000    5.6969459999999996    0.0000000000000000
  -3.7829560000000000    5.6969459999999996    0.0000000000000000
   0.0000000000000000    4.5760059999999996    8.4999900000000004
K Au S O
2 2 4 16
direct
   0.9811270000000000    0.0188730000000000    0.2500000000000000 K
   0.0188730000000000    0.9811270000000000    0.7500000000000000 K
   0.5000000000000000    0.5000000000000000    0.5000000000000000 Au
   0.5000000000000000    0.5000000000000000    0.0000000000000000 Au
   0.6789290000000000    0.7151540000000000    0.1408880000000000 S
   0.2848460000000000    0.3210710000000000    0.3591120000000000 S
   0.7151540000000000    0.6789290000000000    0.6408880000000000 S
   0.3210710000000000    0.2848460000000000    0.8591120000000000 S
   0.1559010000000000    0.5488790000000000    0.3193320000000000 O
   0.4930920000000000    0.2773520000000000    0.2169730000000000 O
   0.8494900000000000    0.8268670000000000    0.0853420000000000 O
   0.3896760000000000    0.2673370000000000    0.4914000000000000 O
   0.1505100000000000    0.1731330000000000    0.9146580000000000 O
   0.1731330000000000    0.1505100000000000    0.4146580000000000 O
   0.5069080000000000    0.7226480000000000    0.7830270000000000 O
   0.2673370000000000    0.3896760000000000    0.9913999999999999 O
   0.2773520000000000    0.4930920000000000    0.7169730000000000 O
   0.7326630000000000    0.6103240000000000    0.0086000000000000 O
   0.7226480000000000    0.5069080000000000    0.2830270000000000 O
   0.8440990000000000    0.4511210000000000    0.6806680000000001 O
   0.5488790000000000    0.1559010000000000    0.8193319999999999 O
   0.4511210000000000    0.8440990000000000    0.1806680000000000 O
   0.8268670000000000    0.8494900000000000    0.5853420000000000 O
   0.6103240000000000    0.7326630000000000    0.5086000000000001 O
