Ba1 Ag1 O2
1.0
   4.3344800000000001    0.0000000000000000    0.0000000000000000
   0.0000000000000000    4.3344800000000001    0.0000000000000000
   0.0000000000000000    0.0000000000000000    3.7358600000000002
Ba Ag O
1 1 2
direct
   0.5000000000000000    0.5000000000000000    0.5000000000000000 Ba
   0.0000000000000000    0.0000000000000000    0.0000000000000000 Ag
   0.5000000000000000    0.0000000000000000    0.0000000000000000 O
   0.0000000000000000    0.5000000000000000    0.0000000000000000 O
