La6 B2 W2 O18
1.0
   4.4628800000000002   -7.7299350000000002    0.0000000000000000
   4.4628800000000002    7.7299350000000002    0.0000000000000000
   0.0000000000000000    0.0000000000000000    5.6808909999999999
La B W O
6 2 2 18
direct
   0.9176410000000000    0.2767920000000000    0.2169940000000000 La
   0.7232080000000000    0.6408490000000000    0.2169940000000000 La
   0.2767920000000000    0.3591510000000000    0.7169940000000000 La
   0.0823590000000000    0.7232080000000000    0.7169940000000000 La
   0.3591510000000000    0.0823590000000000    0.2169940000000000 La
   0.6408490000000000    0.9176410000000000    0.7169940000000000 La
   0.0000000000000000    0.0000000000000000    0.8830370000000000 B
   0.0000000000000000    0.0000000000000000    0.3830370000000000 B
   0.6666670000000000    0.3333330000000000    0.7541639999999999 W
   0.3333330000000000    0.6666670000000000    0.2541640000000000 W
   0.3835390000000000    0.8609120000000000    0.4731340000000000 O
   0.4773730000000000    0.6164610000000000    0.4731340000000000 O
   0.1250790000000000    0.1737840000000000    0.3761390000000000 O
   0.5285580000000000    0.7288150000000000    0.0491990000000000 O
   0.1737840000000000    0.0487050000000000    0.8761390000000000 O
   0.8749209999999999    0.8262160000000000    0.8761390000000000 O
   0.2711850000000000    0.7997430000000000    0.0491990000000000 O
   0.2002570000000000    0.4714420000000000    0.0491990000000000 O
   0.8609120000000000    0.4773730000000000    0.9731340000000001 O
   0.9512950000000000    0.1250790000000000    0.8761390000000000 O
   0.7288150000000000    0.2002570000000000    0.5491990000000000 O
   0.0487050000000000    0.8749209999999999    0.3761390000000000 O
   0.6164610000000000    0.1390880000000000    0.9731340000000001 O
   0.8262160000000000    0.9512950000000000    0.3761390000000000 O
   0.7997430000000000    0.5285580000000000    0.5491990000000000 O
   0.4714420000000000    0.2711850000000000    0.5491990000000000 O
   0.5226270000000000    0.3835390000000000    0.9731340000000001 O
   0.1390880000000000    0.5226270000000000    0.4731340000000000 O
