Hf2 Ge2 Se2
1.0
   3.7256290000000001    0.0000000000000000    0.0000000000000000
   0.0000000000000000    3.7256290000000001    0.0000000000000000
   0.0000000000000000    0.0000000000000000    8.2479469999999999
Hf Ge Se
2 2 2
direct
   0.0000000000000000    0.5000000000000000    0.7387500000000000 Hf
   0.5000000000000000    0.0000000000000000    0.2612500000000000 Hf
   0.0000000000000000    0.0000000000000000    0.0000000000000000 Ge
   0.5000000000000000    0.5000000000000000    0.0000000000000000 Ge
   0.5000000000000000    0.0000000000000000    0.6200790000000000 Se
   0.0000000000000000    0.5000000000000000    0.3799210000000000 Se
