Tl12 P4 S16
1.0
   9.1105250000000009    0.0000000000000000    0.0000000000000000
   0.0000000000000000    9.2374209999999994    0.0000000000000000
   0.0000000000000000    0.0000000000000000   11.1444290000000006
Tl P S
12 4 16
direct
   0.3997310000000000    0.6098430000000000    0.7500000000000000 Tl
   0.8997309999999999    0.8901570000000000    0.7500000000000000 Tl
   0.1002690000000000    0.1098430000000000    0.2500000000000000 Tl
   0.6002690000000001    0.3901570000000000    0.2500000000000000 Tl
   0.4335140000000000    0.8025730000000000    0.4445180000000000 Tl
   0.9335140000000000    0.6974270000000000    0.0554820000000000 Tl
   0.0664860000000000    0.3025730000000000    0.5554820000000000 Tl
   0.5664860000000000    0.1974270000000000    0.9445180000000000 Tl
   0.5664860000000000    0.1974270000000000    0.5554820000000000 Tl
   0.0664860000000000    0.3025730000000000    0.9445180000000000 Tl
   0.9335140000000000    0.6974270000000000    0.4445180000000000 Tl
   0.4335140000000000    0.8025730000000000    0.0554820000000000 Tl
   0.2786810000000000    0.0274590000000000    0.7500000000000000 P
   0.7786810000000000    0.4725410000000000    0.7500000000000000 P
   0.2213190000000000    0.5274590000000000    0.2500000000000000 P
   0.7213190000000000    0.9725410000000000    0.2500000000000000 P
   0.3035750000000000    0.2516780000000000    0.7500000000000000 S
   0.8035750000000000    0.2483220000000000    0.7500000000000000 S
   0.1964250000000000    0.7516780000000000    0.2500000000000000 S
   0.6964250000000000    0.7483220000000000    0.2500000000000000 S
   0.4856920000000000    0.9394760000000000    0.7500000000000000 S
   0.9856920000000000    0.5605240000000000    0.7500000000000000 S
   0.0143080000000000    0.4394760000000000    0.2500000000000000 S
   0.5143080000000000    0.0605240000000000    0.2500000000000000 S
   0.8353000000000000    0.0321510000000000    0.0985420000000000 S
   0.3353000000000000    0.4678490000000000    0.4014580000000000 S
   0.6647000000000000    0.5321510000000000    0.9014580000000000 S
   0.1647000000000000    0.9678490000000000    0.5985420000000000 S
   0.1647000000000000    0.9678490000000000    0.9014580000000000 S
   0.6647000000000000    0.5321510000000000    0.5985420000000000 S
   0.3353000000000000    0.4678490000000000    0.0985420000000000 S
   0.8353000000000000    0.0321510000000000    0.4014580000000000 S
