Mg4 Cu8 O16
1.0
   3.0947559999999998    0.0000000000000000    0.0000000000000000
   0.0000000000000000    9.1589019999999994    0.0000000000000000
   0.0000000000000000    0.0000000000000000    9.9497099999999996
Mg Cu O
4 8 16
direct
   0.8623050000000000    0.2500000000000000    0.8469560000000000 Mg
   0.8623050000000000    0.7500000000000000    0.6530440000000000 Mg
   0.1376950000000000    0.2500000000000000    0.3469560000000000 Mg
   0.1376950000000000    0.7500000000000000    0.1530440000000000 Mg
   0.3425910000000000    0.0699750000000000    0.6145810000000000 Cu
   0.3425910000000000    0.5699750000000000    0.8854190000000000 Cu
   0.6574090000000000    0.5699750000000000    0.3854190000000000 Cu
   0.3425910000000000    0.9300250000000000    0.8854190000000000 Cu
   0.6574090000000000    0.9300250000000000    0.3854190000000000 Cu
   0.3425910000000000    0.4300250000000000    0.6145810000000000 Cu
   0.6574090000000000    0.4300250000000000    0.1145810000000000 Cu
   0.6574090000000000    0.0699750000000000    0.1145810000000000 Cu
   0.6287080000000000    0.3825560000000000    0.4550720000000000 O
   0.3712920000000000    0.6174440000000000    0.5449280000000000 O
   0.9945680000000000    0.5000000000000000    0.7500000000000000 O
   0.3712920000000000    0.3825560000000000    0.9550720000000000 O
   0.3712920000000000    0.1174440000000000    0.9550720000000000 O
   0.3557880000000000    0.7500000000000000    0.7986290000000000 O
   0.6287080000000000    0.6174440000000000    0.0449280000000000 O
   0.6442120000000000    0.7500000000000000    0.2986290000000000 O
   0.9945680000000000    0.0000000000000000    0.7500000000000000 O
   0.0054320000000000    0.5000000000000000    0.2500000000000000 O
   0.6287080000000000    0.1174440000000000    0.4550720000000000 O
   0.6442120000000000    0.2500000000000000    0.2013710000000000 O
   0.3557880000000000    0.2500000000000000    0.7013710000000000 O
   0.0054320000000000    0.0000000000000000    0.2500000000000000 O
   0.6287080000000000    0.8825560000000000    0.0449280000000000 O
   0.3712920000000000    0.8825560000000000    0.5449280000000000 O
