K2 V6 Se4 O24
1.0
   3.5792999999999999   -6.1995290000000001    0.0000000000000000
   3.5792999999999999    6.1995290000000001    0.0000000000000000
   0.0000000000000000    0.0000000000000000   11.9321909999999995
K V Se O
2 6 4 24
direct
   0.3333330000000000    0.6666670000000000    0.9491630000000000 K
   0.6666670000000000    0.3333330000000000    0.4491630000000000 K
   0.7934360000000000    0.1265140000000000    0.7841480000000000 V
   0.6669220000000000    0.7934360000000000    0.2841480000000000 V
   0.1265140000000000    0.3330780000000000    0.2841480000000000 V
   0.8734860000000000    0.6669220000000000    0.7841480000000000 V
   0.3330780000000000    0.2065640000000000    0.7841480000000000 V
   0.2065640000000000    0.8734860000000000    0.2841480000000000 V
   0.3333330000000000    0.6666670000000000    0.5055630000000000 Se
   0.6666670000000000    0.3333330000000000    0.0055630000000000 Se
   0.0000000000000000    0.0000000000000000    0.0661510000000000 Se
   0.0000000000000000    0.0000000000000000    0.5661510000000000 Se
   0.8005770000000000    0.2134480000000000    0.9446860000000000 O
   0.5871290000000000    0.8005770000000000    0.4446860000000000 O
   0.2134480000000000    0.4128710000000000    0.4446860000000000 O
   0.7865520000000000    0.5871290000000000    0.9446860000000000 O
   0.4128710000000000    0.1994230000000000    0.9446860000000000 O
   0.1994230000000000    0.7865520000000000    0.4446860000000000 O
   0.8775900000000000    0.1319170000000000    0.6284490000000000 O
   0.7456720000000000    0.8775900000000000    0.1284490000000000 O
   0.1319170000000000    0.2543280000000000    0.1284490000000000 O
   0.8680830000000000    0.7456720000000000    0.6284490000000000 O
   0.2543280000000000    0.1224100000000000    0.6284490000000000 O
   0.1224100000000000    0.8680830000000000    0.1284490000000000 O
   0.7478050000000001    0.8744540000000000    0.8154169999999999 O
   0.8733510000000000    0.7478050000000001    0.3154170000000000 O
   0.8744540000000000    0.1266490000000000    0.3154170000000000 O
   0.1255460000000000    0.8733510000000000    0.8154169999999999 O
   0.1266490000000000    0.2521950000000000    0.8154169999999999 O
   0.2521950000000000    0.1255460000000000    0.3154170000000000 O
   0.5410600000000000    0.0826210000000000    0.7593590000000000 O
   0.4584390000000000    0.5410600000000000    0.2593590000000000 O
   0.0826210000000000    0.5415610000000000    0.2593590000000000 O
   0.9173789999999999    0.4584390000000000    0.7593590000000000 O
   0.5415610000000000    0.4589400000000000    0.7593590000000000 O
   0.4589400000000000    0.9173789999999999    0.2593590000000000 O
