K4 Te2 O6
1.0
   3.2024789999999999   -5.5468560000000000    0.0000000000000000
   3.2024789999999999    5.5468560000000000    0.0000000000000000
   0.0000000000000000    0.0000000000000000    7.2037350000000000
K Te O
4 2 6
direct
   0.0000000000000000    0.0000000000000000    0.0000000000000000 K
   0.3333330000000000    0.6666670000000000    0.6241719999999999 K
   0.0000000000000000    0.0000000000000000    0.5000000000000000 K
   0.6666670000000000    0.3333330000000000    0.3758280000000000 K
   0.6666670000000000    0.3333330000000000    0.8540770000000000 Te
   0.3333330000000000    0.6666670000000000    0.1459230000000000 Te
   0.8961200000000000    0.2759960000000000    0.7357810000000000 O
   0.3798760000000000    0.1038800000000000    0.7357810000000000 O
   0.7240040000000000    0.6201240000000000    0.7357810000000000 O
   0.1038800000000000    0.7240040000000000    0.2642190000000000 O
   0.2759960000000000    0.3798760000000000    0.2642190000000000 O
   0.6201240000000000    0.8961200000000000    0.2642190000000000 O
