Nb6 S18
1.0
   3.3807580000000002    0.0000000000000000    0.0000000000000000
   0.0000000000000000    9.8188010000000006    0.0000000000000000
   0.0000000000000000    4.7657239999999996   14.2177579999999999
Nb S
6 18
direct
   0.2500000000000000    0.4730120000000000    0.8833760000000001 Nb
   0.7500000000000000    0.5269880000000000    0.1166240000000000 Nb
   0.7500000000000000    0.8877380000000000    0.7938690000000000 Nb
   0.2500000000000000    0.1122620000000000    0.2061310000000000 Nb
   0.2500000000000000    0.1597370000000000    0.5400040000000000 Nb
   0.7500000000000000    0.8402630000000000    0.4599960000000000 Nb
   0.7500000000000000    0.2702310000000000    0.9041140000000000 S
   0.2500000000000000    0.7297690000000000    0.0958860000000000 S
   0.7500000000000000    0.4270810000000000    0.7694490000000000 S
   0.2500000000000000    0.5729190000000000    0.2305510000000000 S
   0.7500000000000000    0.3343870000000000    0.5681680000000000 S
   0.2500000000000000    0.6656130000000000    0.4318320000000000 S
   0.7500000000000000    0.3257760000000000    0.4314390000000000 S
   0.2500000000000000    0.6742240000000000    0.5685610000000000 S
   0.7500000000000000    0.6247640000000000    0.9339080000000000 S
   0.2500000000000000    0.3752360000000000    0.0660920000000000 S
   0.2500000000000000    0.9091980000000000    0.9105040000000000 S
   0.7500000000000000    0.0908020000000000    0.0894960000000000 S
   0.2500000000000000    0.0881570000000000    0.7221500000000000 S
   0.7500000000000000    0.9118430000000000    0.2778500000000000 S
   0.2500000000000000    0.7230350000000000    0.7519840000000000 S
   0.7500000000000000    0.2769650000000000    0.2480160000000000 S
   0.7500000000000000    0.9595570000000000    0.5943840000000000 S
   0.2500000000000000    0.0404430000000000    0.4056160000000000 S
