La2 Zn2 As2 O2
1.0
   4.1106340000000001    0.0000000000000000    0.0000000000000000
   0.0000000000000000    4.1106340000000001    0.0000000000000000
   0.0000000000000000    0.0000000000000000    9.1670979999999993
La Zn As O
2 2 2 2
direct
   0.5000000000000000    0.0000000000000000    0.1328630000000000 La
   0.0000000000000000    0.5000000000000000    0.8671370000000000 La
   0.5000000000000000    0.5000000000000000    0.5000000000000000 Zn
   0.0000000000000000    0.0000000000000000    0.5000000000000000 Zn
   0.0000000000000000    0.5000000000000000    0.3288770000000000 As
   0.5000000000000000    0.0000000000000000    0.6711230000000000 As
   0.5000000000000000    0.5000000000000000    0.0000000000000000 O
   0.0000000000000000    0.0000000000000000    0.0000000000000000 O
