La8 Te4 O24
1.0
   5.5550730000000001    0.0000000000000000    0.0000000000000000
   0.0000000000000000    9.5475499999999993    0.0000000000000000
   0.0000000000000000    0.0000000000000000   10.4840999999999998
La Te O
8 4 24
direct
   0.5243630000000000    0.1043340000000000    0.9557140000000000 La
   0.0243630000000000    0.3956660000000000    0.0442860000000000 La
   0.4756370000000000    0.6043340000000000    0.5442860000000000 La
   0.9756370000000000    0.8956660000000000    0.4557140000000000 La
   0.5295750000000000    0.2173720000000000    0.3590020000000000 La
   0.0295750000000000    0.2826280000000000    0.6409980000000000 La
   0.4704250000000000    0.7173720000000000    0.1409980000000000 La
   0.9704250000000000    0.7826280000000000    0.8590020000000000 La
   0.4605840000000000    0.9959780000000000    0.6407960000000000 Te
   0.9605840000000000    0.5040220000000000    0.3592040000000000 Te
   0.5394160000000000    0.4959780000000000    0.8592040000000000 Te
   0.0394160000000000    0.0040220000000000    0.1407960000000000 Te
   0.3006670000000000    0.1374480000000000    0.1751740000000000 O
   0.8006670000000000    0.3625520000000000    0.8248259999999999 O
   0.6993330000000000    0.6374480000000000    0.3248260000000000 O
   0.1993330000000000    0.8625520000000000    0.6751740000000001 O
   0.7191440000000000    0.1122100000000000    0.5642170000000000 O
   0.2191440000000000    0.3877900000000000    0.4357830000000000 O
   0.2808560000000000    0.6122100000000000    0.9357830000000000 O
   0.7808560000000000    0.8877900000000000    0.0642170000000000 O
   0.6778820000000000    0.6353090000000000    0.7467370000000000 O
   0.1778820000000000    0.8646910000000000    0.2532630000000000 O
   0.3221180000000000    0.1353090000000000    0.7532630000000000 O
   0.8221180000000000    0.3646910000000000    0.2467370000000000 O
   0.6685640000000000    0.9476820000000000    0.7822690000000000 O
   0.1685640000000000    0.5523180000000000    0.2177310000000000 O
   0.3314360000000000    0.4476820000000000    0.7177310000000000 O
   0.8314360000000000    0.0523180000000000    0.2822690000000000 O
   0.2550540000000000    0.0841160000000000    0.5080680000000000 O
   0.7550540000000000    0.4158840000000000    0.4919320000000000 O
   0.7449460000000000    0.5841160000000000    0.9919320000000000 O
   0.2449460000000000    0.9158840000000000    0.0080680000000000 O
   0.0737450000000000    0.6485560000000000    0.4767960000000000 O
   0.5737449999999999    0.8514440000000000    0.5232040000000000 O
   0.9262550000000001    0.1485560000000000    0.0232040000000000 O
   0.4262550000000000    0.3514440000000000    0.9767960000000000 O
