Sr4 Zr4 O12
1.0
   5.8470909999999998    0.0000000000000000    0.0000000000000000
   0.0000000000000000    5.9123279999999996    0.0000000000000000
   0.0000000000000000    0.0000000000000000    8.2982949999999995
Sr Zr O
4 4 12
direct
   0.0073420000000000    0.5329630000000000    0.2500000000000000 Sr
   0.5073420000000000    0.9670370000000000    0.7500000000000000 Sr
   0.4926580000000000    0.0329630000000000    0.2500000000000000 Sr
   0.9926580000000000    0.4670370000000000    0.7500000000000000 Sr
   0.0000000000000000    0.0000000000000000    0.0000000000000000 Zr
   0.5000000000000000    0.5000000000000000    0.0000000000000000 Zr
   0.5000000000000000    0.5000000000000000    0.5000000000000000 Zr
   0.0000000000000000    0.0000000000000000    0.5000000000000000 Zr
   0.2127250000000000    0.2869040000000000    0.4591240000000000 O
   0.7127250000000001    0.2130960000000000    0.5408760000000000 O
   0.2872750000000000    0.7869040000000000    0.0408760000000000 O
   0.7872749999999999    0.7130960000000000    0.9591240000000000 O
   0.7872749999999999    0.7130960000000000    0.5408760000000000 O
   0.2872750000000000    0.7869040000000000    0.4591240000000000 O
   0.7127250000000001    0.2130960000000000    0.9591240000000000 O
   0.2127250000000000    0.2869040000000000    0.0408760000000000 O
   0.9226070000000000    0.9789160000000000    0.2500000000000000 O
   0.4226070000000000    0.5210840000000000    0.7500000000000000 O
   0.5773930000000000    0.4789160000000000    0.2500000000000000 O
   0.0773930000000000    0.0210840000000000    0.7500000000000000 O
