Ag6 As2 S8
1.0
   6.6898850000000003    0.0000000000000000    0.0000000000000000
   0.0000000000000000    7.0324629999999999    0.0000000000000000
   0.0000000000000000    0.0000000000000000    7.9542039999999998
Ag As S
6 2 8
direct
   0.9885290000000000    0.1491570000000000    0.5000000000000000 Ag
   0.0129650000000000    0.6835580000000000    0.2406760000000000 Ag
   0.5129650000000000    0.3164420000000000    0.2593240000000000 Ag
   0.4885290000000000    0.8508430000000000    0.0000000000000000 Ag
   0.5129650000000000    0.3164420000000000    0.7406760000000000 Ag
   0.0129650000000000    0.6835580000000000    0.7593240000000000 Ag
   0.4977350000000000    0.8195210000000001    0.5000000000000000 As
   0.9977350000000000    0.1804790000000000    0.0000000000000000 As
   0.3906910000000000    0.6652810000000000    0.7295720000000000 S
   0.8906910000000000    0.3347190000000000    0.7704280000000000 S
   0.8906910000000000    0.3347190000000000    0.2295720000000000 S
   0.3906910000000000    0.6652810000000000    0.2704280000000000 S
   0.3298360000000000    0.1835270000000000    0.0000000000000000 S
   0.8744890000000000    0.8865440000000000    0.0000000000000000 S
   0.8298360000000000    0.8164730000000000    0.5000000000000000 S
   0.3744890000000000    0.1134560000000000    0.5000000000000000 S
