Sn1 S2
1.0
   1.8499600000000000   -3.2042250000000001    0.0000000000000000
   1.8499600000000000    3.2042250000000001    0.0000000000000000
   0.0000000000000000    0.0000000000000000    6.9779590000000002
Sn S
1 2
direct
   0.0000000000000000    0.0000000000000000    0.0000000000000000 Sn
   0.3333330000000000    0.6666670000000000    0.2117870000000000 S
   0.6666670000000000    0.3333330000000000    0.7882130000000001 S
