Rb1 Tl1 O2
1.0
   6.5439299999999996   -1.7730840000000001    0.0000000000000000
   6.5439299999999996    1.7730840000000001    0.0000000000000000
   6.0635110000000001    0.0000000000000000    3.0332629999999998
Rb Tl O
1 1 2
direct
   0.5000000000000000    0.5000000000000000    0.5000000000000000 Rb
   0.0000000000000000    0.0000000000000000    0.0000000000000000 Tl
   0.7284389999999999    0.7284389999999999    0.7284389999999999 O
   0.2715610000000000    0.2715610000000000    0.2715610000000000 O
