Rb3 Cu8 S6
1.0
   1.9260029999999999    8.9141879999999993    0.0000000000000000
  -1.9260029999999999    8.9141879999999993    0.0000000000000000
   0.0000000000000000    2.7123309999999998    9.6402310000000000
Rb Cu S
3 8 6
direct
   0.6901969999999999    0.6901969999999999    0.6982490000000000 Rb
   0.3098030000000000    0.3098030000000000    0.3017510000000000 Rb
   0.5000000000000000    0.5000000000000000    0.0000000000000000 Rb
   0.4802650000000000    0.4802650000000000    0.6439940000000000 Cu
   0.0874840000000000    0.0874840000000000    0.4747920000000000 Cu
   0.8928390000000000    0.8928390000000000    0.7841160000000000 Cu
   0.7034930000000000    0.7034930000000000    0.0615790000000000 Cu
   0.2965070000000000    0.2965070000000000    0.9384209999999999 Cu
   0.9125160000000000    0.9125160000000000    0.5252080000000000 Cu
   0.1071610000000000    0.1071610000000000    0.2158840000000000 Cu
   0.5197349999999999    0.5197349999999999    0.3560060000000000 Cu
   0.3489360000000000    0.3489360000000000    0.6417360000000000 S
   0.1582930000000000    0.1582930000000000    0.9847010000000000 S
   0.9660120000000000    0.9660120000000000    0.2938050000000000 S
   0.0339880000000000    0.0339880000000000    0.7061950000000000 S
   0.6510640000000000    0.6510640000000000    0.3582640000000000 S
   0.8417070000000000    0.8417070000000000    0.0152990000000000 S
