Na4 Zr2 Ge4 O14
1.0
   5.7085850000000002    0.0000000000000000    0.0000000000000000
   0.3659230000000000    6.7472399999999997    0.0000000000000000
   0.2053970000000000    3.0893679999999999    8.7321989999999996
Na Zr Ge O
4 2 4 14
direct
   0.7658430000000001    0.6552580000000000    0.5041140000000000 Na
   0.7295870000000000    0.9020280000000001    0.1163900000000000 Na
   0.2341570000000000    0.3447420000000000    0.4958860000000000 Na
   0.2704130000000000    0.0979720000000000    0.8836100000000000 Na
   0.7706520000000000    0.2982250000000000    0.2763220000000000 Zr
   0.2293480000000000    0.7017750000000000    0.7236780000000000 Zr
   0.3048070000000000    0.9464310000000000    0.3352140000000000 Ge
   0.2244760000000000    0.6437680000000000    0.1445510000000000 Ge
   0.6951929999999999    0.0535690000000000    0.6647860000000000 Ge
   0.7755240000000000    0.3562320000000000    0.8554490000000000 Ge
   0.5423110000000000    0.5195880000000000    0.7581630000000000 O
   0.7169770000000000    0.0953330000000000    0.8492560000000000 O
   0.9494800000000000    0.5853000000000000    0.2353380000000000 O
   0.7426050000000000    0.2888240000000000    0.5130700000000000 O
   0.3951930000000000    0.9963800000000000    0.6638840000000000 O
   0.6048070000000000    0.0036200000000000    0.3361160000000000 O
   0.2573950000000000    0.7111760000000000    0.4869300000000000 O
   0.8992100000000000    0.8517500000000000    0.6675840000000000 O
   0.1007900000000000    0.1482500000000000    0.3324160000000000 O
   0.7899340000000000    0.2973830000000000    0.0534340000000000 O
   0.0505200000000000    0.4147000000000000    0.7646620000000000 O
   0.2100660000000000    0.7026170000000000    0.9465660000000000 O
   0.2830230000000000    0.9046670000000000    0.1507440000000000 O
   0.4576890000000000    0.4804120000000000    0.2418370000000000 O
