Hf2 S1 N2
1.0
   1.7950050000000000   -3.1090399999999998    0.0000000000000000
   1.7950050000000000    3.1090399999999998    0.0000000000000000
   0.0000000000000000    0.0000000000000000    6.4248940000000001
Hf S N
2 1 2
direct
   0.6666670000000000    0.3333330000000000    0.7035400000000001 Hf
   0.3333330000000000    0.6666670000000000    0.2964600000000000 Hf
   0.0000000000000000    0.0000000000000000    0.0000000000000000 S
   0.6666670000000000    0.3333330000000000    0.3653070000000000 N
   0.3333330000000000    0.6666670000000000    0.6346930000000000 N
