Li2 Cu2 P8 O24
1.0
   6.5357010000000004    4.6791630000000000    0.0000000000000000
  -6.5357010000000004    4.6791630000000000    0.0000000000000000
   0.0000000000000000    0.7519400000000001    7.7762089999999997
Li Cu P O
2 2 8 24
direct
   0.4918240000000000    0.1846810000000000    0.1837370000000000 Li
   0.1846810000000000    0.4918240000000000    0.6837370000000000 Li
   0.1355730000000000    0.8640790000000000    0.2590860000000000 Cu
   0.8640790000000000    0.1355730000000000    0.7590860000000000 Cu
   0.4391410000000000    0.7419110000000000    0.3600550000000000 P
   0.2325330000000000    0.5533439999999999    0.1032810000000000 P
   0.9516280000000000    0.7889190000000000    0.6961660000000000 P
   0.7419110000000000    0.4391410000000000    0.8600550000000000 P
   0.5533439999999999    0.2325330000000000    0.6032810000000000 P
   0.0701360000000000    0.2206450000000000    0.3412150000000000 P
   0.2206450000000000    0.0701360000000000    0.8412150000000000 P
   0.7889190000000000    0.9516280000000000    0.1961660000000000 P
   0.4128550000000000    0.6208110000000000    0.1981840000000000 O
   0.1272100000000000    0.8714600000000000    0.7947070000000001 O
   0.8714600000000000    0.1272100000000000    0.2947070000000000 O
   0.8955170000000000    0.3681420000000000    0.8126570000000000 O
   0.9894080000000000    0.7032910000000000    0.5423460000000000 O
   0.8313080000000000    0.6487560000000000    0.8464000000000000 O
   0.6394940000000000    0.1031550000000000    0.6817020000000000 O
   0.9289230000000001    0.8631230000000000    0.1619310000000000 O
   0.8631230000000000    0.9289230000000001    0.6619310000000000 O
   0.6396060000000000    0.3781390000000000    0.0268840000000000 O
   0.6208110000000000    0.4128550000000000    0.6981840000000000 O
   0.5625710000000000    0.2678050000000000    0.4150560000000000 O
   0.6487560000000000    0.8313080000000000    0.3464000000000000 O
   0.7032910000000000    0.9894080000000000    0.0423460000000000 O
   0.0728630000000000    0.3158080000000000    0.4987840000000000 O
   0.3475740000000000    0.1546710000000000    0.6720900000000000 O
   0.3158080000000000    0.0728630000000000    0.9987840000000000 O
   0.3781390000000000    0.6396060000000000    0.5268840000000000 O
   0.1637110000000000    0.0812070000000000    0.3520960000000000 O
   0.2678050000000000    0.5625710000000000    0.9150560000000000 O
   0.0812070000000000    0.1637110000000000    0.8520960000000000 O
   0.3681420000000000    0.8955170000000000    0.3126570000000000 O
   0.1546710000000000    0.3475740000000000    0.1720900000000000 O
   0.1031550000000000    0.6394940000000000    0.1817020000000000 O
