Na12 Zn2 S8
1.0
   4.4906639999999998   -7.7780579999999997    0.0000000000000000
   4.4906639999999998    7.7780579999999997    0.0000000000000000
   0.0000000000000000    0.0000000000000000    6.9418290000000002
Na Zn S
12 2 8
direct
   0.1479330000000000    0.8520670000000000    0.5380460000000000 Na
   0.2958660000000000    0.1479330000000000    0.0380460000000000 Na
   0.8520670000000000    0.7041340000000000    0.0380460000000000 Na
   0.1479330000000000    0.2958660000000000    0.5380460000000000 Na
   0.7041340000000000    0.8520670000000000    0.5380460000000000 Na
   0.8520670000000000    0.1479330000000000    0.0380460000000000 Na
   0.5312780000000000    0.4687220000000000    0.3658820000000000 Na
   0.0625570000000000    0.5312780000000000    0.8658820000000000 Na
   0.4687220000000000    0.9374430000000000    0.8658820000000000 Na
   0.5312780000000000    0.0625570000000000    0.3658820000000000 Na
   0.9374430000000000    0.4687220000000000    0.3658820000000000 Na
   0.4687220000000000    0.5312780000000000    0.8658820000000000 Na
   0.6666670000000000    0.3333330000000000    0.7486410000000000 Zn
   0.3333330000000000    0.6666670000000000    0.2486410000000000 Zn
   0.8122470000000001    0.1877530000000000    0.6418950000000000 S
   0.6244950000000000    0.8122470000000001    0.1418950000000000 S
   0.3333330000000000    0.6666670000000000    0.5933880000000000 S
   0.6666670000000000    0.3333330000000000    0.0933880000000000 S
   0.1877530000000000    0.8122470000000001    0.1418950000000000 S
   0.3755050000000000    0.1877530000000000    0.6418950000000000 S
   0.8122470000000001    0.6244950000000000    0.6418950000000000 S
   0.1877530000000000    0.3755050000000000    0.1418950000000000 S
