Tl4 Pt4 O14
1.0
   0.0000000000000000    5.1678519999999999    5.1678519999999999
   5.1678519999999999    0.0000000000000000    5.1678519999999999
   5.1678519999999999    5.1678519999999999    0.0000000000000000
Tl Pt O
4 4 14
direct
   0.6250000000000000    0.6250000000000000    0.6250000000000000 Tl
   0.1250000000000000    0.6250000000000000    0.6250000000000000 Tl
   0.6250000000000000    0.6250000000000000    0.1250000000000000 Tl
   0.6250000000000000    0.1250000000000000    0.6250000000000000 Tl
   0.1250000000000000    0.1250000000000000    0.1250000000000000 Pt
   0.6250000000000000    0.1250000000000000    0.1250000000000000 Pt
   0.1250000000000000    0.1250000000000000    0.6250000000000000 Pt
   0.1250000000000000    0.6250000000000000    0.1250000000000000 Pt
   0.4594400000000000    0.4594400000000000    0.0405600000000000 O
   0.2094400000000000    0.2094400000000000    0.7905600000000000 O
   0.0405600000000000    0.4594400000000000    0.0405600000000000 O
   0.0405600000000000    0.4594400000000000    0.4594400000000000 O
   0.4594400000000000    0.0405600000000000    0.0405600000000000 O
   0.4594400000000000    0.0405600000000000    0.4594400000000000 O
   0.2094400000000000    0.7905600000000000    0.2094400000000000 O
   0.7905600000000000    0.2094400000000000    0.7905600000000000 O
   0.7500000000000000    0.7500000000000000    0.7500000000000000 O
   0.5000000000000000    0.5000000000000000    0.5000000000000000 O
   0.0405600000000000    0.0405600000000000    0.4594400000000000 O
   0.7905600000000000    0.2094400000000000    0.2094400000000000 O
   0.2094400000000000    0.7905600000000000    0.7905600000000000 O
   0.7905600000000000    0.7905600000000000    0.2094400000000000 O
