Sc2 C1 O1
1.0
   5.3874899999999997   -1.6256640000000000    0.0000000000000000
   5.3874899999999997    1.6256640000000000    0.0000000000000000
   4.8969490000000002    0.0000000000000000    2.7726730000000002
Sc C O
2 1 1
direct
   0.2463300000000000    0.2463300000000000    0.2463300000000000 Sc
   0.7536700000000000    0.7536700000000000    0.7536700000000000 Sc
   0.5000000000000000    0.5000000000000000    0.5000000000000000 C
   0.0000000000000000    0.0000000000000000    0.0000000000000000 O
