Ta4 Co2 Pd1 Se12
1.0
   1.7202470000000001    7.0081319999999998    0.0000000000000000
  -1.7202470000000001    7.0081319999999998    0.0000000000000000
   0.0000000000000000    6.7139040000000003   18.2937660000000015
Ta Co Pd Se
4 2 1 12
direct
   0.6241240000000000    0.6241240000000000    0.8491240000000000 Ta
   0.3758760000000000    0.3758760000000000    0.1508760000000000 Ta
   0.7462310000000000    0.7462310000000000    0.5939400000000000 Ta
   0.2537690000000000    0.2537690000000000    0.4060600000000000 Ta
   0.2294020000000000    0.2294020000000000    0.7157750000000001 Co
   0.7705980000000000    0.7705980000000000    0.2842250000000000 Co
   0.0000000000000000    0.0000000000000000    0.0000000000000000 Pd
   0.9743870000000000    0.9743870000000000    0.8805830000000000 Se
   0.0256130000000000    0.0256130000000000    0.1194170000000000 Se
   0.6253840000000001    0.6253840000000001    0.3942630000000000 Se
   0.3746160000000000    0.3746160000000000    0.6057370000000000 Se
   0.1372630000000000    0.1372630000000000    0.5503630000000000 Se
   0.8627370000000000    0.8627370000000000    0.4496370000000000 Se
   0.8068330000000000    0.8068330000000000    0.7638760000000000 Se
   0.1931670000000000    0.1931670000000000    0.2361240000000000 Se
   0.1847360000000000    0.1847360000000000    0.9263920000000000 Se
   0.8152640000000000    0.8152640000000000    0.0736080000000000 Se
   0.6060720000000001    0.6060720000000001    0.7188780000000000 Se
   0.3939280000000000    0.3939280000000000    0.2811220000000000 Se
