Ba6 Bi4 Te2 O18
1.0
   3.1324179999999999   -5.4255069999999996    0.0000000000000000
   3.1324179999999999    5.4255069999999996    0.0000000000000000
   0.0000000000000000    0.0000000000000000   15.0538849999999993
Ba Bi Te O
6 4 2 18
direct
   0.3333330000000000    0.6666670000000000    0.0819740000000000 Ba
   0.6666670000000000    0.3333330000000000    0.9180260000000000 Ba
   0.3333330000000000    0.6666670000000000    0.5819740000000000 Ba
   0.6666670000000000    0.3333330000000000    0.4180260000000000 Ba
   0.0000000000000000    0.0000000000000000    0.2500000000000000 Ba
   0.0000000000000000    0.0000000000000000    0.7500000000000000 Ba
   0.3333330000000000    0.6666670000000000    0.8328030000000000 Bi
   0.6666670000000000    0.3333330000000000    0.1671970000000000 Bi
   0.3333330000000000    0.6666670000000000    0.3328030000000000 Bi
   0.6666670000000000    0.3333330000000000    0.6671970000000000 Bi
   0.0000000000000000    0.0000000000000000    0.0000000000000000 Te
   0.0000000000000000    0.0000000000000000    0.5000000000000000 Te
   0.9175610000000000    0.7101200000000000    0.5749990000000000 O
   0.0000000000000000    0.5562950000000000    0.2500000000000000 O
   0.2074410000000000    0.2898800000000000    0.9250010000000000 O
   0.9175610000000000    0.2074410000000000    0.0749990000000000 O
   0.7925590000000000    0.0824390000000000    0.5749990000000000 O
   0.7925590000000000    0.7101200000000000    0.0749990000000000 O
   0.7101200000000000    0.7925590000000000    0.4250010000000000 O
   0.4437050000000000    0.0000000000000000    0.7500000000000000 O
   0.5562950000000000    0.5562950000000000    0.7500000000000000 O
   0.2898800000000000    0.2074410000000000    0.5749990000000000 O
   0.0824390000000000    0.2898800000000000    0.4250010000000000 O
   0.2074410000000000    0.9175610000000000    0.4250010000000000 O
   0.2898800000000000    0.0824390000000000    0.0749990000000000 O
   0.5562950000000000    0.0000000000000000    0.2500000000000000 O
   0.4437050000000000    0.4437050000000000    0.2500000000000000 O
   0.0000000000000000    0.4437050000000000    0.7500000000000000 O
   0.0824390000000000    0.7925590000000000    0.9250010000000000 O
   0.7101200000000000    0.9175610000000000    0.9250010000000000 O
