Ti3 O3
1.0
   2.5092669999999999   -4.3461790000000002    0.0000000000000000
   2.5092669999999999    4.3461790000000002    0.0000000000000000
   0.0000000000000000    0.0000000000000000    2.8820000000000001
Ti O
3 3
direct
   0.6666670000000000    0.3333330000000000    0.5000000000000000 Ti
   0.3333330000000000    0.6666670000000000    0.5000000000000000 Ti
   0.0000000000000000    0.0000000000000000    0.0000000000000000 Ti
   0.6060320000000000    0.6060320000000000    0.0000000000000000 O
   0.3939680000000000    0.0000000000000000    0.0000000000000000 O
   0.0000000000000000    0.3939680000000000    0.0000000000000000 O
