Ag4 Ge2 Pb2 S8
1.0
   3.4606949999999999   -5.2581899999999999    0.0000000000000000
   3.4606949999999999    5.2581899999999999    0.0000000000000000
   0.0000000000000000    0.0000000000000000   10.2834570000000003
Ag Ge Pb S
4 2 2 8
direct
   0.5898980000000000    0.3565940000000000    0.9002720000000000 Ag
   0.5898980000000000    0.3565940000000000    0.5997280000000000 Ag
   0.3565940000000000    0.5898980000000000    0.4002720000000000 Ag
   0.3565940000000000    0.5898980000000000    0.0997290000000000 Ag
   0.3245940000000000    0.7257749999999999    0.7500000000000000 Ge
   0.7257749999999999    0.3245940000000000    0.2500000000000000 Ge
   0.9861060000000000    0.9861060000000000    0.0000000000000000 Pb
   0.9861060000000000    0.9861060000000000    0.5000000000000000 Pb
   0.5111130000000000    0.9071740000000000    0.9312520000000000 S
   0.9741040000000000    0.7385070000000000    0.7500000000000000 S
   0.2739270000000000    0.3515120000000000    0.7500000000000000 S
   0.5111130000000000    0.9071740000000000    0.5687480000000000 S
   0.9071740000000000    0.5111130000000000    0.4312520000000000 S
   0.7385070000000000    0.9741040000000000    0.2500000000000000 S
   0.3515120000000000    0.2739270000000000    0.2500000000000000 S
   0.9071740000000000    0.5111130000000000    0.0687480000000000 S
