K2 Ta2 B4 O12
1.0
   3.9555530000000001    0.0000000000000000    0.0000000000000000
   0.0000000000000000    7.4962939999999998    0.0000000000000000
   0.0000000000000000    0.0000000000000000    9.4723729999999993
K Ta B O
2 2 4 12
direct
   0.5237619999999999    0.5000000000000000    0.8565920000000000 K
   0.4762380000000000    0.0000000000000000    0.3565920000000000 K
   0.1754350000000000    0.0000000000000000    0.7565080000000000 Ta
   0.8245650000000000    0.5000000000000000    0.2565080000000000 Ta
   0.0188930000000000    0.6664350000000000    0.5437730000000000 B
   0.9811070000000000    0.1664350000000000    0.0437730000000000 B
   0.0188930000000000    0.3335650000000000    0.5437730000000000 B
   0.9811070000000000    0.8335650000000000    0.0437730000000000 B
   0.1482620000000000    0.8092549999999999    0.6142020000000000 O
   0.1482620000000000    0.1907450000000000    0.6142020000000000 O
   0.8517380000000000    0.3092550000000000    0.1142020000000000 O
   0.6451410000000000    0.0000000000000000    0.7583510000000000 O
   0.3548590000000000    0.5000000000000000    0.2583510000000000 O
   0.1231030000000000    0.1840810000000000    0.9134480000000000 O
   0.1231030000000000    0.8159189999999999    0.9134480000000000 O
   0.8517380000000000    0.6907450000000001    0.1142020000000000 O
   0.8768970000000000    0.3159190000000000    0.4134480000000000 O
   0.9526010000000000    0.0000000000000000    0.1125010000000000 O
   0.8768970000000000    0.6840810000000001    0.4134480000000000 O
   0.0473990000000000    0.5000000000000000    0.6125010000000000 O
