Tl1 Pd5 Se1
1.0
   4.0988239999999996    0.0000000000000000    0.0000000000000000
   0.0000000000000000    4.0988239999999996    0.0000000000000000
   0.0000000000000000    0.0000000000000000    7.2351859999999997
Tl Pd Se
1 5 1
direct
   0.5000000000000000    0.5000000000000000    0.0000000000000000 Tl
   0.0000000000000000    0.5000000000000000    0.2861420000000000 Pd
   0.0000000000000000    0.5000000000000000    0.7138580000000000 Pd
   0.5000000000000000    0.0000000000000000    0.2861420000000000 Pd
   0.5000000000000000    0.0000000000000000    0.7138580000000000 Pd
   0.0000000000000000    0.0000000000000000    0.0000000000000000 Pd
   0.0000000000000000    0.0000000000000000    0.5000000000000000 Se
