La6 Ag2 Sn2 Se14
1.0
   5.4621279999999999   -9.4606829999999995    0.0000000000000000
   5.4621279999999999    9.4606829999999995    0.0000000000000000
   0.0000000000000000    0.0000000000000000    6.3298389999999998
La Ag Sn Se
6 2 2 14
direct
   0.8665600000000000    0.2234910000000000    0.6174730000000000 La
   0.6430700000000000    0.8665600000000000    0.1174730000000000 La
   0.2234910000000000    0.3569300000000000    0.1174730000000000 La
   0.7765090000000000    0.6430700000000000    0.6174730000000000 La
   0.3569300000000000    0.1334400000000000    0.6174730000000000 La
   0.1334400000000000    0.7765090000000000    0.1174730000000000 La
   0.0000000000000000    0.0000000000000000    0.5540210000000000 Ag
   0.0000000000000000    0.0000000000000000    0.0540210000000000 Ag
   0.6666670000000000    0.3333330000000000    0.1994450000000000 Sn
   0.3333330000000000    0.6666670000000000    0.6994450000000000 Sn
   0.6666670000000000    0.3333330000000000    0.8005740000000000 Se
   0.3333330000000000    0.6666670000000000    0.3005740000000000 Se
   0.1662610000000000    0.2696160000000000    0.5929200000000000 Se
   0.8966450000000000    0.1662610000000000    0.0929200000000000 Se
   0.2696160000000000    0.1033550000000000    0.0929200000000000 Se
   0.7303840000000000    0.8966450000000000    0.5929200000000000 Se
   0.1033550000000000    0.8337390000000000    0.5929200000000000 Se
   0.8337390000000000    0.7303840000000000    0.0929200000000000 Se
   0.5749760000000000    0.0887670000000000    0.3710150000000000 Se
   0.4862080000000000    0.5749760000000000    0.8710150000000000 Se
   0.4250240000000000    0.9112330000000000    0.8710150000000000 Se
   0.5137920000000000    0.4250240000000000    0.3710150000000000 Se
   0.9112330000000000    0.4862080000000000    0.3710150000000000 Se
   0.0887670000000000    0.5137920000000000    0.8710150000000000 Se
