K2 Ga2 P8 O24
1.0
   6.2138119999999999    8.4969079999999995    0.0000000000000000
  -6.2138119999999999    8.4969079999999995    0.0000000000000000
   0.0000000000000000    0.9836819999999999    5.1275139999999997
K Ga P O
2 2 8 24
direct
   0.4070520000000000    0.4070520000000000    0.7397380000000000 K
   0.5929480000000000    0.5929480000000000    0.2602620000000000 K
   0.5000000000000000    0.0000000000000000    0.0000000000000000 Ga
   0.0000000000000000    0.5000000000000000    0.0000000000000000 Ga
   0.7993440000000001    0.3549920000000000    0.8361499999999999 P
   0.0686000000000000    0.3088420000000000    0.5335340000000000 P
   0.3088420000000000    0.0686000000000000    0.5335340000000000 P
   0.6450080000000000    0.2006560000000000    0.1638500000000000 P
   0.3549920000000000    0.7993440000000001    0.8361499999999999 P
   0.6911580000000001    0.9314000000000000    0.4664660000000000 P
   0.9314000000000000    0.6911580000000001    0.4664660000000000 P
   0.2006560000000000    0.6450080000000000    0.1638500000000000 P
   0.4267970000000000    0.8494010000000000    0.0141980000000000 O
   0.3992970000000000    0.1003900000000000    0.6986010000000000 O
   0.4303270000000000    0.6772930000000000    0.7110690000000000 O
   0.1505990000000000    0.5732030000000000    0.9858020000000000 O
   0.5732030000000000    0.1505990000000000    0.9858020000000000 O
   0.9123940000000000    0.6567240000000000    0.7571430000000000 O
   0.2154300000000000    0.7845700000000000    0.0000000000000000 O
   0.5696730000000000    0.3227070000000000    0.2889310000000000 O
   0.6007030000000000    0.8996100000000000    0.3013990000000000 O
   0.7084220000000000    0.0773580000000000    0.3780600000000000 O
   0.3227070000000000    0.5696730000000000    0.2889310000000000 O
   0.8996100000000000    0.6007030000000000    0.3013990000000000 O
   0.8494010000000000    0.4267970000000000    0.0141980000000000 O
   0.0773580000000000    0.7084220000000000    0.3780600000000000 O
   0.1571880000000000    0.1571880000000000    0.6024560000000000 O
   0.1003900000000000    0.3992970000000000    0.6986010000000000 O
   0.6772930000000000    0.4303270000000000    0.7110690000000000 O
   0.2915780000000000    0.9226420000000000    0.6219400000000000 O
   0.7845700000000000    0.2154300000000000    0.0000000000000000 O
   0.3432760000000000    0.0876060000000000    0.2428570000000000 O
   0.6567240000000000    0.9123940000000000    0.7571430000000000 O
   0.8428120000000000    0.8428120000000000    0.3975440000000000 O
   0.9226420000000000    0.2915780000000000    0.6219400000000000 O
   0.0876060000000000    0.3432760000000000    0.2428570000000000 O
