Tl2 As2 O8
1.0
  -2.4976729999999998    2.4976729999999998    5.9247370000000004
   2.4976729999999998   -2.4976729999999998    5.9247370000000004
   2.4976729999999998    2.4976729999999998   -5.9247370000000004
Tl As O
2 2 8
direct
   0.5000000000000000    0.5000000000000000    0.0000000000000000 Tl
   0.2500000000000000    0.7500000000000000    0.5000000000000000 Tl
   0.0000000000000000    0.0000000000000000    0.0000000000000000 As
   0.7500000000000000    0.2500000000000000    0.5000000000000000 As
   0.6718170000000000    0.0785920000000000    0.9055960000000000 O
   0.5770040000000000    0.4837780000000000    0.4055960000000000 O
   0.5162220000000000    0.9218170000000000    0.0932260000000000 O
   0.9214080000000000    0.8270040000000000    0.5932260000000000 O
   0.2337780000000000    0.3281830000000000    0.4067740000000000 O
   0.8285920000000000    0.4229960000000000    0.9067740000000000 O
   0.0781830000000000    0.1714080000000000    0.5944040000000000 O
   0.1729960000000000    0.7662220000000000    0.0944040000000000 O
