Ti1 Nb6 Tl2 O18
1.0
   3.8430700000000000    6.6632270000000000    0.0000000000000000
  -3.8430700000000000    6.6632270000000000    0.0000000000000000
   0.0000000000000000    0.0226110000000000    8.3003599999999995
Ti Nb Tl O
1 6 2 18
direct
   0.9980090000000000    0.0019910000000000    0.5000000000000000 Ti
   0.3339160000000000    0.8361040000000000    0.8471970000000000 Nb
   0.8305740000000000    0.3383860000000000    0.8478100000000000 Nb
   0.8292430000000000    0.8357770000000000    0.8483150000000000 Nb
   0.6616140000000000    0.1694260000000000    0.1521900000000000 Nb
   0.1638960000000000    0.6660840000000000    0.1528030000000000 Nb
   0.1642230000000000    0.1707570000000000    0.1516850000000000 Nb
   0.6248880000000000    0.6879640000000000    0.2968970000000000 Tl
   0.3120360000000000    0.3751120000000000    0.7031030000000000 Tl
   0.8972180000000000    0.5522780000000000    0.8382020000000000 O
   0.5518860000000000    0.8962130000000000    0.8389020000000000 O
   0.5510020000000000    0.5527470000000000    0.8380540000000000 O
   0.1037870000000000    0.4481140000000000    0.1610980000000000 O
   0.4477220000000000    0.1027820000000000    0.1617980000000000 O
   0.4472530000000000    0.4489980000000000    0.1619460000000000 O
   0.2411920000000000    0.8782530000000000    0.6357810000000000 O
   0.8801460000000000    0.2400630000000000    0.6371820000000000 O
   0.8814330000000000    0.8787030000000000    0.6370970000000000 O
   0.7599370000000000    0.1198540000000000    0.3628180000000000 O
   0.1217470000000000    0.7588080000000000    0.3642190000000000 O
   0.1212970000000000    0.1185670000000000    0.3629030000000000 O
   0.7147370000000000    0.1429400000000000    0.8980850000000000 O
   0.1432890000000000    0.7145040000000000    0.8969440000000000 O
   0.1423770000000000    0.1419790000000000    0.8973470000000000 O
   0.2854960000000000    0.8567110000000000    0.1030560000000000 O
   0.8570600000000000    0.2852630000000000    0.1019150000000000 O
   0.8580210000000000    0.8576230000000000    0.1026530000000000 O
