Ta1 Tl3 Se4
1.0
  -4.0316200000000002    4.0316200000000002    4.0316200000000002
   4.0316200000000002   -4.0316200000000002    4.0316200000000002
   4.0316200000000002    4.0316200000000002   -4.0316200000000002
Ta Tl Se
1 3 4
direct
   0.0000000000000000    0.0000000000000000    0.0000000000000000 Ta
   0.0000000000000000    0.5000000000000000    0.5000000000000000 Tl
   0.5000000000000000    0.0000000000000000    0.5000000000000000 Tl
   0.5000000000000000    0.5000000000000000    0.0000000000000000 Tl
   0.3464570000000000    0.0000000000000000    0.0000000000000000 Se
   0.0000000000000000    0.3464570000000000    0.0000000000000000 Se
   0.0000000000000000    0.0000000000000000    0.3464570000000000 Se
   0.6535430000000000    0.6535430000000000    0.6535430000000000 Se
