K1 In1 P2 S7
1.0
   5.0934340000000002    4.4415190000000004    0.0000000000000000
  -5.0934340000000002    4.4415190000000004    0.0000000000000000
   0.0000000000000000    1.0167520000000001    6.4458750000000000
K In P S
1 1 2 7
direct
   0.0831480000000000    0.9168520000000000    0.5000000000000000 K
   0.4989260000000000    0.5010740000000000    0.0000000000000000 In
   0.6383160000000000    0.9617000000000000    0.0866710000000000 P
   0.0383000000000000    0.3616840000000000    0.9133289999999999 P
   0.9594330000000000    0.0405670000000000    0.0000000000000000 S
   0.8262600000000000    0.4724990000000000    0.7527530000000000 S
   0.6307450000000000    0.7113400000000000    0.2918820000000000 S
   0.2886600000000000    0.3692550000000000    0.7081180000000000 S
   0.5138400000000000    0.8866300000000000    0.8309510000000000 S
   0.1133700000000000    0.4861600000000000    0.1690490000000000 S
   0.5275010000000000    0.1737400000000000    0.2472470000000000 S
