Na8 Ti4 S8 O4
1.0
  13.7200740000000003    0.0000000000000000    0.0000000000000000
   0.0000000000000000    5.7947689999999996    0.0000000000000000
   0.0000000000000000    2.7383240000000000    6.3658970000000004
Na Ti S O
8 4 8 4
direct
   0.3605130000000000    0.4552700000000000    0.6039000000000000 Na
   0.9421780000000000    0.3520870000000000    0.7861170000000000 Na
   0.1394870000000000    0.9552700000000000    0.6039000000000000 Na
   0.4421780000000000    0.1479130000000000    0.2138830000000000 Na
   0.5578220000000000    0.8520870000000000    0.7861170000000000 Na
   0.8605130000000000    0.0447300000000000    0.3961000000000000 Na
   0.0578220000000000    0.6479130000000000    0.2138830000000000 Na
   0.6394870000000000    0.5447300000000000    0.3961000000000000 Na
   0.3170710000000000    0.8374390000000000    0.9786130000000000 Ti
   0.6829290000000000    0.1625610000000000    0.0213870000000000 Ti
   0.1829290000000000    0.3374390000000000    0.9786130000000000 Ti
   0.8170710000000000    0.6625610000000000    0.0213870000000000 Ti
   0.5583090000000001    0.3521740000000000    0.8084030000000000 S
   0.3570210000000000    0.9411670000000000    0.6396170000000000 S
   0.8570210000000000    0.5588330000000000    0.3603830000000000 S
   0.9416909999999999    0.8521740000000000    0.8084030000000000 S
   0.6429790000000000    0.0588330000000000    0.3603830000000000 S
   0.1429790000000000    0.4411670000000000    0.6396170000000000 S
   0.4416910000000000    0.6478260000000000    0.1915970000000000 S
   0.0583090000000000    0.1478260000000000    0.1915970000000000 S
   0.7085750000000000    0.8686480000000000    0.9799440000000000 O
   0.2085750000000000    0.6313520000000000    0.0200560000000000 O
   0.7914250000000000    0.3686480000000000    0.9799440000000000 O
   0.2914250000000000    0.1313520000000000    0.0200560000000000 O
