K8 Li8 Ti4 O16
1.0
   8.5277940000000001    0.0000000000000000    0.0000000000000000
   0.0000000000000000    5.7897720000000001    0.0000000000000000
   0.0000000000000000    3.7382369999999998   10.7469090000000005
K Li Ti O
8 8 4 16
direct
   0.5043730000000000    0.6835190000000000    0.6577880000000000 K
   0.2171960000000000    0.2782940000000000    0.1047530000000000 K
   0.0043730000000000    0.3164810000000000    0.8422120000000000 K
   0.2828040000000000    0.2782940000000000    0.6047530000000000 K
   0.7171959999999999    0.7217060000000000    0.3952470000000000 K
   0.9956270000000000    0.6835190000000000    0.1577880000000000 K
   0.7828040000000001    0.7217060000000000    0.8952470000000000 K
   0.4956270000000000    0.3164810000000000    0.3422120000000000 K
   0.4813040000000000    0.3761850000000000    0.9258430000000000 Li
   0.9813040000000000    0.6238150000000000    0.5741570000000000 Li
   0.9506080000000000    0.1073150000000000    0.2962830000000000 Li
   0.4506080000000000    0.8926850000000000    0.2037170000000000 Li
   0.5493920000000000    0.1073150000000000    0.7962830000000000 Li
   0.0493920000000000    0.8926850000000000    0.7037170000000000 Li
   0.0186960000000000    0.3761850000000000    0.4258430000000000 Li
   0.5186960000000000    0.6238150000000000    0.0741570000000000 Li
   0.2061360000000000    0.8809100000000000    0.4273940000000000 Ti
   0.7061360000000000    0.1190900000000000    0.0726060000000000 Ti
   0.2938640000000000    0.8809100000000000    0.9273940000000001 Ti
   0.7938640000000000    0.1190900000000000    0.5726059999999999 Ti
   0.8324410000000000    0.7909190000000000    0.6455740000000000 O
   0.1899410000000000    0.7797500000000001    0.5973300000000000 O
   0.5314440000000000    0.2649130000000000    0.1157380000000000 O
   0.9030350000000000    0.1948890000000000    0.1160940000000000 O
   0.6899410000000000    0.2202500000000000    0.9026700000000000 O
   0.3324410000000000    0.2090810000000000    0.8544260000000000 O
   0.4030350000000000    0.8051110000000000    0.3839060000000000 O
   0.0314440000000000    0.7350870000000000    0.3842620000000000 O
   0.9685560000000000    0.2649130000000000    0.6157380000000000 O
   0.5969650000000000    0.1948890000000000    0.6160940000000000 O
   0.6675590000000000    0.7909190000000000    0.1455740000000000 O
   0.3100590000000000    0.7797500000000001    0.0973300000000000 O
   0.0969650000000000    0.8051110000000000    0.8839060000000000 O
   0.4685560000000000    0.7350870000000000    0.8842620000000000 O
   0.8100590000000000    0.2202500000000000    0.4026700000000000 O
   0.1675590000000000    0.2090810000000000    0.3544260000000000 O
