Ba2 Nb4 O12
1.0
   6.1409310000000001    0.0000000000000000    0.0000000000000000
   0.0000000000000000    4.0104290000000002    0.0000000000000000
   0.0000000000000000    0.0641610000000000   10.6760350000000006
Ba Nb O
2 4 12
direct
   0.0000000000000000    0.0000000000000000    0.0000000000000000 Ba
   0.5000000000000000    0.0000000000000000    0.5000000000000000 Ba
   0.5448650000000000    0.4669560000000000    0.1501610000000000 Nb
   0.0448650000000000    0.5330440000000000    0.3498390000000000 Nb
   0.4551350000000000    0.5330440000000000    0.8498390000000000 Nb
   0.9551350000000000    0.4669560000000000    0.6501610000000000 Nb
   0.5851610000000000    0.9978810000000000    0.1503290000000000 O
   0.0851610000000000    0.0021190000000000    0.3496710000000000 O
   0.4148390000000000    0.0021190000000000    0.8496710000000000 O
   0.9148390000000000    0.9978810000000000    0.6503290000000000 O
   0.8830789999999999    0.5021930000000000    0.1971840000000000 O
   0.3830790000000000    0.4978070000000000    0.3028160000000000 O
   0.8007730000000000    0.5035200000000000    0.4628110000000000 O
   0.3007730000000000    0.4964800000000000    0.0371890000000000 O
   0.1992270000000000    0.4964800000000000    0.5371890000000000 O
   0.6992270000000000    0.5035200000000000    0.9628110000000000 O
   0.6169210000000001    0.5021930000000000    0.6971840000000000 O
   0.1169210000000000    0.4978070000000000    0.8028160000000000 O
