Ca2 Sn3 O8
1.0
   3.2111719999999999    5.7484700000000002    0.0000000000000000
  -3.2111719999999999    5.7484700000000002    0.0000000000000000
   0.0000000000000000    1.9168820000000000    5.0562690000000003
Ca Sn O
2 3 8
direct
   0.7200200000000000    0.7200200000000000    0.3424260000000000 Ca
   0.2799800000000000    0.2799800000000000    0.6575740000000000 Ca
   0.0000000000000000    0.0000000000000000    0.5000000000000000 Sn
   0.7374280000000000    0.2625720000000000    0.0000000000000000 Sn
   0.2625720000000000    0.7374280000000000    0.0000000000000000 Sn
   0.3891150000000000    0.3891150000000000    0.9475220000000000 O
   0.6108850000000000    0.6108850000000000    0.0524780000000000 O
   0.8979660000000000    0.8979660000000000    0.9151060000000000 O
   0.1020340000000000    0.1020340000000000    0.0848940000000000 O
   0.3313630000000000    0.8874720000000000    0.6010150000000000 O
   0.8874720000000000    0.3313630000000000    0.6010150000000000 O
   0.1125280000000000    0.6686370000000000    0.3989850000000000 O
   0.6686370000000000    0.1125280000000000    0.3989850000000000 O
