Cs2 Ge1 B4 O9
1.0
   5.0846989999999996    4.7994399999999997    0.0000000000000000
  -5.0846989999999996    4.7994399999999997    0.0000000000000000
   0.0000000000000000    4.6910360000000004    4.9808089999999998
Cs Ge B O
2 1 4 9
direct
   0.7400970000000000    0.2599030000000000    0.0000000000000000 Cs
   0.0098330000000000    0.9901670000000000    0.5000000000000000 Cs
   0.2541170000000000    0.7458830000000000    0.0000000000000000 Ge
   0.3356250000000000    0.2273130000000000    0.7988650000000000 B
   0.7726870000000000    0.6643750000000000    0.2011350000000000 B
   0.3547060000000000    0.5208950000000000    0.3958640000000000 B
   0.4791050000000000    0.6452940000000000    0.6041360000000000 B
   0.4024900000000000    0.3970100000000000    0.8267110000000000 O
   0.6029900000000000    0.5975100000000000    0.1732890000000000 O
   0.2850230000000000    0.2664550000000000    0.6151030000000000 O
   0.7335450000000000    0.7149770000000000    0.3848970000000000 O
   0.3202500000000000    0.0082260000000000    0.9787830000000000 O
   0.9917740000000000    0.6797500000000000    0.0212170000000000 O
   0.2030560000000000    0.5187190000000000    0.3031930000000000 O
   0.4812810000000000    0.7969440000000000    0.6968060000000000 O
   0.3351890000000000    0.6648110000000000    0.5000000000000000 O
