Rb4 V4 Se4 O20
1.0
   7.8480020000000001    0.0000000000000000    0.0000000000000000
   0.0000000000000000    7.9391309999999997    0.0000000000000000
   0.0000000000000000    0.4979330000000000    9.5848859999999991
Rb V Se O
4 4 4 20
direct
   0.9882280000000000    0.9068500000000000    0.1350020000000000 Rb
   0.4882280000000000    0.0931500000000000    0.8649980000000000 Rb
   0.7619690000000000    0.6242820000000000    0.6138670000000001 Rb
   0.2619690000000000    0.3757180000000000    0.3861330000000000 Rb
   0.8207520000000000    0.4290830000000000    0.2376280000000000 V
   0.3207520000000000    0.5709170000000000    0.7623720000000000 V
   0.4503720000000000    0.9198400000000000    0.2672120000000000 V
   0.9503720000000000    0.0801600000000000    0.7327880000000000 V
   0.5315730000000000    0.6190440000000000    0.0690190000000000 Se
   0.0315730000000000    0.3809560000000000    0.9309809999999999 Se
   0.2498090000000000    0.8821010000000000    0.5534019999999999 Se
   0.7498089999999999    0.1178990000000000    0.4465980000000000 Se
   0.8551670000000000    0.9311340000000000    0.8317970000000000 O
   0.3551670000000000    0.0688660000000000    0.1682030000000000 O
   0.6251800000000000    0.4133100000000000    0.3103540000000000 O
   0.1251800000000000    0.5866900000000000    0.6896460000000000 O
   0.6882140000000000    0.9683600000000000    0.3320570000000000 O
   0.1882140000000000    0.0316400000000000    0.6679430000000000 O
   0.3206250000000000    0.7519880000000000    0.2903380000000000 O
   0.8206250000000000    0.2480120000000000    0.7096620000000000 O
   0.8890940000000001    0.9905060000000000    0.5462560000000000 O
   0.3890940000000000    0.0094940000000000    0.4537440000000000 O
   0.9237150000000000    0.5812440000000000    0.3134780000000000 O
   0.4237150000000000    0.4187560000000000    0.6865220000000000 O
   0.9029370000000000    0.2218320000000000    0.3403040000000000 O
   0.4029370000000000    0.7781680000000000    0.6596959999999999 O
   0.7353800000000000    0.5290920000000000    0.0583540000000000 O
   0.2353800000000000    0.4709080000000000    0.9416460000000000 O
   0.5909840000000000    0.8179850000000000    0.1215220000000000 O
   0.0909840000000000    0.1820150000000000    0.8784780000000000 O
   0.9968010000000000    0.3297140000000000    0.1045970000000000 O
   0.4968010000000000    0.6702860000000000    0.8954029999999999 O
