Rb4 Pd6 S8
1.0
   0.0000000000000000    5.4803379999999997   13.6913380000000000
   3.1248840000000002    0.0000000000000000   13.6913380000000000
   3.1248840000000002    5.4803379999999997    0.0000000000000000
Rb Pd S
4 6 8
direct
   0.0783110000000000    0.0783110000000000    0.9216890000000000 Rb
   0.9216890000000000    0.9216890000000000    0.0783110000000000 Rb
   0.1716890000000000    0.1716890000000000    0.3283110000000000 Rb
   0.3283110000000000    0.3283110000000000    0.1716890000000000 Rb
   0.5000000000000000    0.5000000000000000    0.5000000000000000 Pd
   0.7500000000000000    0.7500000000000000    0.7500000000000000 Pd
   0.7493379999999999    0.7493379999999999    0.2506620000000000 Pd
   0.2506620000000000    0.2506620000000000    0.7493379999999999 Pd
   0.5006620000000001    0.5006620000000001    0.9993379999999999 Pd
   0.9993379999999999    0.9993379999999999    0.5006620000000001 Pd
   0.6059320000000000    0.2821470000000000    0.7261550000000000 S
   0.7261550000000000    0.3857670000000000    0.6059320000000000 S
   0.2821470000000000    0.6059320000000000    0.3857670000000000 S
   0.3857670000000000    0.7261550000000000    0.2821470000000000 S
   0.6440680000000000    0.9678530000000000    0.5238450000000000 S
   0.5238450000000000    0.8642330000000000    0.6440680000000000 S
   0.9678530000000000    0.6440680000000000    0.8642330000000000 S
   0.8642330000000000    0.5238450000000000    0.9678530000000000 S
