K4 Zr2 Si6 O18
1.0
   3.5150329999999999   -6.0882149999999999    0.0000000000000000
   3.5150329999999999    6.0882149999999999    0.0000000000000000
   0.0000000000000000    0.0000000000000000   10.3644789999999993
K Zr Si O
4 2 6 18
direct
   0.3333330000000000    0.6666670000000000    0.0570750000000000 K
   0.6666670000000000    0.3333330000000000    0.5570750000000000 K
   0.3333330000000000    0.6666670000000000    0.4429250000000000 K
   0.6666670000000000    0.3333330000000000    0.9429250000000000 K
   0.0000000000000000    0.0000000000000000    0.0000000000000000 Zr
   0.0000000000000000    0.0000000000000000    0.5000000000000000 Zr
   0.6132649999999999    0.7405720000000000    0.7500000000000000 Si
   0.8726930000000001    0.6132649999999999    0.2500000000000000 Si
   0.7405720000000000    0.1273070000000000    0.2500000000000000 Si
   0.2594280000000000    0.8726930000000001    0.7500000000000000 Si
   0.1273070000000000    0.3867350000000000    0.7500000000000000 Si
   0.3867350000000000    0.2594280000000000    0.2500000000000000 Si
   0.2563240000000000    0.2356210000000000    0.3831200000000000 O
   0.0207030000000000    0.2563240000000000    0.8831200000000000 O
   0.2356210000000000    0.9792970000000000    0.8831200000000000 O
   0.7643790000000000    0.0207030000000000    0.3831200000000000 O
   0.9792970000000000    0.7436760000000000    0.3831200000000000 O
   0.7436760000000000    0.7643790000000000    0.8831200000000000 O
   0.7436760000000000    0.7643790000000000    0.6168800000000000 O
   0.9792970000000000    0.7436760000000000    0.1168800000000000 O
   0.7643790000000000    0.0207030000000000    0.1168800000000000 O
   0.2356210000000000    0.9792970000000000    0.6168800000000000 O
   0.0207030000000000    0.2563240000000000    0.6168800000000000 O
   0.2563240000000000    0.2356210000000000    0.1168800000000000 O
   0.4863830000000000    0.0892650000000000    0.2500000000000000 O
   0.3971180000000000    0.4863830000000000    0.7500000000000000 O
   0.0892650000000000    0.6028820000000000    0.7500000000000000 O
   0.9107350000000000    0.3971180000000000    0.2500000000000000 O
   0.6028820000000000    0.5136170000000000    0.2500000000000000 O
   0.5136170000000000    0.9107350000000000    0.7500000000000000 O
