Na4 B4 Se14
1.0
   3.4351170000000000    7.5371189999999997    0.0000000000000000
  -3.4351170000000000    7.5371189999999997    0.0000000000000000
   0.0000000000000000    5.8889820000000004   10.5363640000000007
Na B Se
4 4 14
direct
   0.8933610000000000    0.3266800000000000    0.9570330000000000 Na
   0.6733200000000000    0.1066390000000000    0.5429670000000000 Na
   0.1066390000000000    0.6733200000000000    0.0429670000000000 Na
   0.3266800000000000    0.8933610000000000    0.4570330000000000 Na
   0.6021670000000000    0.1626530000000000    0.8496380000000000 B
   0.8373470000000000    0.3978330000000000    0.6503620000000000 B
   0.3978330000000000    0.8373470000000000    0.1503620000000000 B
   0.1626530000000000    0.6021670000000000    0.3496380000000000 B
   0.5246250000000000    0.4753750000000000    0.7500000000000000 Se
   0.4753750000000000    0.5246250000000000    0.2500000000000000 Se
   0.4416760000000000    0.8010260000000000    0.9802410000000000 Se
   0.1989740000000000    0.5583240000000000    0.5197590000000000 Se
   0.5583240000000000    0.1989740000000000    0.0197590000000000 Se
   0.8010260000000000    0.4416760000000000    0.4802410000000000 Se
   0.3787580000000000    0.1448110000000000    0.8316670000000000 Se
   0.8551890000000000    0.6212420000000000    0.6683330000000000 Se
   0.6212420000000000    0.8551890000000000    0.1683330000000000 Se
   0.1448110000000000    0.3787580000000000    0.3316670000000000 Se
   0.9092000000000000    0.9161580000000000    0.7760620000000000 Se
   0.0838420000000000    0.0908000000000000    0.7239380000000000 Se
   0.0908000000000000    0.0838420000000000    0.2239380000000000 Se
   0.9161580000000000    0.9092000000000000    0.2760620000000000 Se
