Y1 Cu7 O12
1.0
  -3.6568399999999999    3.6568399999999999    3.6568399999999999
   3.6568399999999999   -3.6568399999999999    3.6568399999999999
   3.6568399999999999    3.6568399999999999   -3.6568399999999999
Y Cu O
1 7 12
direct
   0.0000000000000000    0.0000000000000000    0.0000000000000000 Y
   0.5000000000000000    0.0000000000000000    0.0000000000000000 Cu
   0.5000000000000000    0.5000000000000000    0.5000000000000000 Cu
   0.0000000000000000    0.5000000000000000    0.0000000000000000 Cu
   0.0000000000000000    0.0000000000000000    0.5000000000000000 Cu
   0.0000000000000000    0.5000000000000000    0.5000000000000000 Cu
   0.5000000000000000    0.5000000000000000    0.0000000000000000 Cu
   0.5000000000000000    0.0000000000000000    0.5000000000000000 Cu
   0.3056930000000000    0.8311590000000000    0.1368520000000000 O
   0.6943070000000000    0.1688410000000000    0.8631480000000000 O
   0.6943070000000000    0.8311590000000000    0.5254660000000000 O
   0.8631480000000000    0.6943070000000000    0.1688410000000000 O
   0.8311590000000000    0.1368520000000000    0.3056930000000000 O
   0.1688410000000000    0.4745340000000000    0.3056930000000000 O
   0.4745340000000000    0.3056930000000000    0.1688410000000000 O
   0.1688410000000000    0.8631480000000000    0.6943070000000000 O
   0.3056930000000000    0.1688410000000000    0.4745340000000000 O
   0.1368520000000000    0.3056930000000000    0.8311590000000000 O
   0.8311590000000000    0.5254660000000000    0.6943070000000000 O
   0.5254660000000000    0.6943070000000000    0.8311590000000000 O
