Sr2 As4 O12
1.0
   2.4747309999999998   -4.2863590000000000    0.0000000000000000
   2.4747309999999998    4.2863590000000000    0.0000000000000000
   0.0000000000000000    0.0000000000000000   10.9695280000000004
Sr As O
2 4 12
direct
   0.0000000000000000    0.0000000000000000    0.2500000000000000 Sr
   0.0000000000000000    0.0000000000000000    0.7500000000000000 Sr
   0.6666670000000000    0.3333330000000000    0.0000000000000000 As
   0.3333330000000000    0.6666670000000000    0.0000000000000000 As
   0.6666670000000000    0.3333330000000000    0.5000000000000000 As
   0.3333330000000000    0.6666670000000000    0.5000000000000000 As
   0.6160080000000000    0.6160080000000000    0.0967450000000000 O
   0.3839920000000000    0.0000000000000000    0.0967450000000000 O
   0.0000000000000000    0.3839920000000000    0.0967450000000000 O
   0.6160080000000000    0.6160080000000000    0.4032550000000000 O
   0.3839920000000000    0.0000000000000000    0.4032550000000000 O
   0.0000000000000000    0.3839920000000000    0.4032550000000000 O
   0.6160080000000000    0.0000000000000000    0.5967450000000000 O
   0.3839920000000000    0.3839920000000000    0.5967450000000000 O
   0.0000000000000000    0.6160080000000000    0.5967450000000000 O
   0.3839920000000000    0.3839920000000000    0.9032550000000000 O
   0.6160080000000000    0.0000000000000000    0.9032550000000000 O
   0.0000000000000000    0.6160080000000000    0.9032550000000000 O
