Sb3 Rh1 Pb4 O13
1.0
   6.4536720000000001   -3.7887919999999999    0.0000000000000000
   6.4536720000000001    3.7887919999999999    0.0000000000000000
   4.2293659999999997    0.0000000000000000    6.1739199999999999
Sb Rh Pb O
3 1 4 13
direct
   0.0005960000000000    0.4996470000000000    0.4996470000000000 Sb
   0.4996470000000000    0.4996470000000000    0.0005960000000000 Sb
   0.4996470000000000    0.0005960000000000    0.4996470000000000 Sb
   0.4995000000000000    0.4995000000000000    0.4995000000000000 Rh
   0.9986030000000000    0.9986030000000000    0.9986030000000000 Pb
   0.5050220000000000    0.9986890000000000    0.9986890000000000 Pb
   0.9986890000000000    0.9986890000000000    0.5050220000000000 Pb
   0.9986890000000000    0.5050220000000000    0.9986890000000000 Pb
   0.8318540000000000    0.4226000000000000    0.4226000000000000 O
   0.4266110000000000    0.8221690000000000    0.8221690000000000 O
   0.4226000000000000    0.4226000000000000    0.8318540000000000 O
   0.8221690000000000    0.8221690000000000    0.4266110000000000 O
   0.8221690000000000    0.4266110000000000    0.8221690000000000 O
   0.4226000000000000    0.8318540000000000    0.4226000000000000 O
   0.1716260000000000    0.5746080000000000    0.5746080000000000 O
   0.5716790000000000    0.1798610000000000    0.1798610000000000 O
   0.5746080000000000    0.5746080000000000    0.1716260000000000 O
   0.1798610000000000    0.1798610000000000    0.5716790000000000 O
   0.1798610000000000    0.5716790000000000    0.1798610000000000 O
   0.5746080000000000    0.1716260000000000    0.5746080000000000 O
   0.1243610000000000    0.1243610000000000    0.1243610000000000 O
