K12 As4 Se12
1.0
   9.9050069999999995    0.0000000000000000    0.0000000000000000
   0.0000000000000000    9.9050069999999995    0.0000000000000000
   0.0000000000000000    0.0000000000000000    9.9050069999999995
K As Se
12 4 12
direct
   0.8162830000000000    0.1837170000000000    0.6837170000000000 K
   0.6837170000000000    0.8162830000000000    0.1837170000000000 K
   0.1837170000000000    0.6837170000000000    0.8162830000000000 K
   0.3162830000000000    0.3162830000000000    0.3162830000000000 K
   0.1874680000000000    0.3125320000000000    0.6874690000000000 K
   0.3125320000000000    0.6874690000000000    0.1874690000000000 K
   0.6874690000000000    0.1874680000000000    0.3125310000000000 K
   0.8125310000000000    0.8125310000000000    0.8125310000000000 K
   0.4201640000000000    0.0798360000000000    0.9201640000000000 K
   0.0798360000000000    0.9201640000000000    0.4201640000000000 K
   0.9201640000000000    0.4201640000000000    0.0798360000000000 K
   0.5798360000000000    0.5798360000000000    0.5798360000000000 K
   0.0221670000000000    0.0221670000000000    0.0221670000000000 As
   0.4778330000000000    0.9778330000000000    0.5221670000000000 As
   0.9778330000000000    0.5221670000000000    0.4778330000000000 As
   0.5221670000000000    0.4778330000000000    0.9778330000000000 As
   0.2888360000000000    0.4015090000000000    0.9952730000000000 Se
   0.7888360000000000    0.0984910000000000    0.0047270000000000 Se
   0.7111640000000000    0.9015090000000000    0.5047270000000000 Se
   0.0984910000000000    0.0047270000000000    0.7888360000000000 Se
   0.5047270000000000    0.7111640000000000    0.9015090000000000 Se
   0.0047270000000000    0.7888360000000000    0.0984910000000000 Se
   0.4015090000000000    0.9952730000000000    0.2888360000000000 Se
   0.9952730000000000    0.2888360000000000    0.4015090000000000 Se
   0.9015090000000000    0.5047270000000000    0.7111640000000000 Se
   0.5984910000000000    0.4952730000000000    0.2111640000000000 Se
   0.4952730000000000    0.2111640000000000    0.5984910000000000 Se
   0.2111640000000000    0.5984910000000000    0.4952730000000000 Se
