Sr4 Cd4 B8 O20
1.0
   5.1606880000000004    3.8644820000000002    0.0000000000000000
  -5.1606880000000004    3.8644820000000002    0.0000000000000000
   0.0000000000000000    1.7786210000000000   11.1251309999999997
Sr Cd B O
4 4 8 20
direct
   0.6327320000000000    0.3672680000000000    0.7500000000000000 Sr
   0.3672680000000000    0.6327320000000000    0.2500000000000000 Sr
   0.8161090000000000    0.1838910000000000    0.2500000000000000 Sr
   0.1838910000000000    0.8161090000000000    0.7500000000000000 Sr
   0.0666360000000000    0.2625700000000000    0.5568010000000000 Cd
   0.7374300000000000    0.9333640000000000    0.9431990000000000 Cd
   0.9333640000000000    0.7374300000000000    0.4431990000000000 Cd
   0.2625700000000000    0.0666360000000000    0.0568010000000000 Cd
   0.5434920000000000    0.2704400000000000    0.5037469999999999 B
   0.7295600000000000    0.4565080000000000    0.9962530000000001 B
   0.4565080000000000    0.7295600000000000    0.4962530000000000 B
   0.2704400000000000    0.5434920000000000    0.0037470000000000 B
   0.1314550000000000    0.3244960000000000    0.8313270000000000 B
   0.6755040000000000    0.8685450000000000    0.6686730000000000 B
   0.8685450000000000    0.6755040000000000    0.1686730000000000 B
   0.3244960000000000    0.1314550000000000    0.3313270000000000 B
   0.3792690000000000    0.1875620000000000    0.5962750000000000 O
   0.8124380000000000    0.6207310000000000    0.9037250000000000 O
   0.6207310000000000    0.8124380000000000    0.4037250000000000 O
   0.1875620000000000    0.3792690000000000    0.0962750000000000 O
   0.0292020000000000    0.3853300000000000    0.7400700000000000 O
   0.6146700000000000    0.9707980000000000    0.7599300000000000 O
   0.9707980000000000    0.6146700000000000    0.2599300000000000 O
   0.3853300000000000    0.0292020000000000    0.2400700000000000 O
   0.7556380000000000    0.3641940000000000    0.5236970000000000 O
   0.6358060000000000    0.2443620000000000    0.9763030000000000 O
   0.2443620000000000    0.6358060000000000    0.4763030000000000 O
   0.3641940000000000    0.7556380000000000    0.0236970000000000 O
   0.1157860000000000    0.1279520000000000    0.3724370000000000 O
   0.8720480000000000    0.8842140000000001    0.1275630000000000 O
   0.8842140000000001    0.8720480000000000    0.6275630000000000 O
   0.1279520000000000    0.1157860000000000    0.8724370000000000 O
   0.5034590000000000    0.2694700000000000    0.3813180000000000 O
   0.7305300000000000    0.4965410000000000    0.1186820000000000 O
   0.4965410000000000    0.7305300000000000    0.6186820000000000 O
   0.2694700000000000    0.5034590000000000    0.8813180000000000 O
